# vtk DataFile Version 4.0
vtk output
ASCII
DATASET UNSTRUCTURED_GRID
POINTS 26 float
0.0000000e+00 1.0000000e-01 0.0000000e+00 
0.0000000e+00 0.0000000e+00 0.0000000e+00 
1.4766368e-01 1.0000000e-01 0.0000000e+00 
1.4883940e-01 0.0000000e+00 0.0000000e+00 
3.0036214e-01 1.0000000e-01 0.0000000e+00 
3.0422947e-01 0.0000000e+00 0.0000000e+00 
4.6008557e-01 1.0000000e-01 0.0000000e+00 
4.6697357e-01 0.0000000e+00 0.0000000e+00 
6.2771249e-01 1.0000000e-01 0.0000000e+00 
6.3798475e-01 0.0000000e+00 0.0000000e+00 
8.0424988e-01 1.0000000e-01 0.0000000e+00 
8.1830680e-01 0.0000000e+00 0.0000000e+00 
9.9085975e-01 1.0000000e-01 0.0000000e+00 
1.0091403e+00 0.0000000e+00 0.0000000e+00 
1.1816932e+00 1.0000000e-01 0.0000000e+00 
1.1957501e+00 0.0000000e+00 0.0000000e+00 
1.3620152e+00 1.0000000e-01 0.0000000e+00 
1.3722875e+00 0.0000000e+00 0.0000000e+00 
1.5330265e+00 1.0000000e-01 0.0000000e+00 
1.5399145e+00 0.0000000e+00 0.0000000e+00 
1.6957705e+00 1.0000000e-01 0.0000000e+00 
1.6996379e+00 0.0000000e+00 0.0000000e+00 
1.8511606e+00 1.0000000e-01 0.0000000e+00 
1.8523363e+00 0.0000000e+00 0.0000000e+00 
2.0000000e+00 1.0000000e-01 0.0000000e+00 
2.0000000e+00 0.0000000e+00 0.0000000e+00 

CELLS 24 96
3 25 24 23
3 0 1 2
3 1 3 2
3 2 3 4
3 24 22 23
3 23 22 21
3 3 5 4
3 4 5 6
3 22 20 21
3 21 20 19
3 5 7 6
3 6 7 8
3 20 18 19
3 19 18 17
3 7 9 8
3 8 9 10
3 18 16 17
3 17 16 15
3 9 11 10
3 10 11 12
3 16 14 15
3 15 14 13
3 11 13 12
3 12 13 14

CELL_TYPES 24
5
5
5
5
5
5
5
5
5
5
5
5
5
5
5
5
5
5
5
5
5
5
5
5
POINT_DATA 26
FIELD FieldData 3
DISPLACEMENT 3 26  float
0.0000000e+00 0.0000000e+00 0.0000000e+00 
0.0000000e+00 0.0000000e+00 0.0000000e+00 
5.5787554e-03 -1.0755088e-02 0.0000000e+00 
-7.6814117e-03 -9.9188266e-03 0.0000000e+00 
8.1533724e-03 -4.1925538e-02 0.0000000e+00 
-1.7497642e-02 -3.9535828e-02 0.0000000e+00 
5.2401656e-03 -9.3669169e-02 0.0000000e+00 
-3.1873439e-02 -8.9217491e-02 0.0000000e+00 
-5.4438002e-03 -1.6576952e-01 0.0000000e+00 
-5.3048920e-02 -1.5912205e-01 0.0000000e+00 
-2.5861057e-02 -2.5783998e-01 0.0000000e+00 
-8.2979813e-02 -2.4923179e-01 0.0000000e+00 
-5.7571080e-02 -3.6937428e-01 0.0000000e+00 
-1.2321699e-01 -3.5938352e-01 0.0000000e+00 
-9.9818632e-02 -4.9515131e-01 0.0000000e+00 
-1.7051834e-01 -4.7880661e-01 0.0000000e+00 
-1.4786239e-01 -6.2205905e-01 0.0000000e+00 
-2.2178353e-01 -5.9992981e-01 0.0000000e+00 
-1.9952202e-01 -7.4766451e-01 0.0000000e+00 
-2.7529594e-01 -7.2054291e-01 0.0000000e+00 
-2.5299501e-01 -8.7046200e-01 0.0000000e+00 
-3.2962734e-01 -8.3922541e-01 0.0000000e+00 
-3.0686930e-01 -9.8955411e-01 0.0000000e+00 
-3.8363862e-01 -9.5508319e-01 0.0000000e+00 
-3.6007133e-01 -1.1044266e+00 0.0000000e+00 
-4.3684235e-01 -1.0684922e+00 0.0000000e+00 
REACTION 3 26  float
0.0000000e+00 0.0000000e+00 0.0000000e+00 
0.0000000e+00 0.0000000e+00 0.0000000e+00 
0.0000000e+00 0.0000000e+00 0.0000000e+00 
0.0000000e+00 0.0000000e+00 0.0000000e+00 
0.0000000e+00 0.0000000e+00 0.0000000e+00 
0.0000000e+00 0.0000000e+00 0.0000000e+00 
0.0000000e+00 0.0000000e+00 0.0000000e+00 
0.0000000e+00 0.0000000e+00 0.0000000e+00 
0.0000000e+00 0.0000000e+00 0.0000000e+00 
0.0000000e+00 0.0000000e+00 0.0000000e+00 
0.0000000e+00 0.0000000e+00 0.0000000e+00 
0.0000000e+00 0.0000000e+00 0.0000000e+00 
0.0000000e+00 0.0000000e+00 0.0000000e+00 
0.0000000e+00 0.0000000e+00 0.0000000e+00 
0.0000000e+00 0.0000000e+00 0.0000000e+00 
0.0000000e+00 0.0000000e+00 0.0000000e+00 
0.0000000e+00 0.0000000e+00 0.0000000e+00 
0.0000000e+00 0.0000000e+00 0.0000000e+00 
0.0000000e+00 0.0000000e+00 0.0000000e+00 
0.0000000e+00 0.0000000e+00 0.0000000e+00 
0.0000000e+00 0.0000000e+00 0.0000000e+00 
0.0000000e+00 0.0000000e+00 0.0000000e+00 
0.0000000e+00 0.0000000e+00 0.0000000e+00 
0.0000000e+00 0.0000000e+00 0.0000000e+00 
0.0000000e+00 0.0000000e+00 0.0000000e+00 
0.0000000e+00 0.0000000e+00 0.0000000e+00 
VON_MISES_STRESS 1 26  float
1.3074970e+10
1.2892863e+10
1.2584556e+10
1.2020803e+10
1.1442319e+10
1.0796483e+10
1.0281514e+10
9.5497441e+09
9.0885970e+09
8.2836987e+09
7.8647859e+09
6.9962260e+09
6.6474573e+09
5.7303465e+09
5.4283822e+09
4.4934589e+09
4.2915382e+09
3.4124129e+09
3.2657900e+09
2.4389076e+09
2.3373870e+09
1.5575098e+09
1.4915092e+09
7.9491059e+08
7.9713754e+08
1.6181906e+08
CELL_DATA 24
FIELD FieldData 0
