# vtk DataFile Version 4.0
vtk output
ASCII
DATASET UNSTRUCTURED_GRID
POINTS 26 float
0.0000000e+00 1.0000000e-01 0.0000000e+00 
0.0000000e+00 0.0000000e+00 0.0000000e+00 
1.4766368e-01 1.0000000e-01 0.0000000e+00 
1.4883940e-01 0.0000000e+00 0.0000000e+00 
3.0036214e-01 1.0000000e-01 0.0000000e+00 
3.0422947e-01 0.0000000e+00 0.0000000e+00 
4.6008557e-01 1.0000000e-01 0.0000000e+00 
4.6697357e-01 0.0000000e+00 0.0000000e+00 
6.2771249e-01 1.0000000e-01 0.0000000e+00 
6.3798475e-01 0.0000000e+00 0.0000000e+00 
8.0424988e-01 1.0000000e-01 0.0000000e+00 
8.1830680e-01 0.0000000e+00 0.0000000e+00 
9.9085975e-01 1.0000000e-01 0.0000000e+00 
1.0091403e+00 0.0000000e+00 0.0000000e+00 
1.1816932e+00 1.0000000e-01 0.0000000e+00 
1.1957501e+00 0.0000000e+00 0.0000000e+00 
1.3620152e+00 1.0000000e-01 0.0000000e+00 
1.3722875e+00 0.0000000e+00 0.0000000e+00 
1.5330265e+00 1.0000000e-01 0.0000000e+00 
1.5399145e+00 0.0000000e+00 0.0000000e+00 
1.6957705e+00 1.0000000e-01 0.0000000e+00 
1.6996379e+00 0.0000000e+00 0.0000000e+00 
1.8511606e+00 1.0000000e-01 0.0000000e+00 
1.8523363e+00 0.0000000e+00 0.0000000e+00 
2.0000000e+00 1.0000000e-01 0.0000000e+00 
2.0000000e+00 0.0000000e+00 0.0000000e+00 

CELLS 24 96
3 25 24 23
3 0 1 2
3 1 3 2
3 2 3 4
3 24 22 23
3 23 22 21
3 3 5 4
3 4 5 6
3 22 20 21
3 21 20 19
3 5 7 6
3 6 7 8
3 20 18 19
3 19 18 17
3 7 9 8
3 8 9 10
3 18 16 17
3 17 16 15
3 9 11 10
3 10 11 12
3 16 14 15
3 15 14 13
3 11 13 12
3 12 13 14

CELL_TYPES 24
5
5
5
5
5
5
5
5
5
5
5
5
5
5
5
5
5
5
5
5
5
5
5
5
POINT_DATA 26
FIELD FieldData 3
DISPLACEMENT 3 26  float
0.0000000e+00 0.0000000e+00 0.0000000e+00 
0.0000000e+00 0.0000000e+00 0.0000000e+00 
4.0188646e-03 -7.2569498e-03 0.0000000e+00 
-5.0354269e-03 -6.9229528e-03 0.0000000e+00 
6.5696728e-03 -2.8410979e-02 0.0000000e+00 
-1.1067186e-02 -2.7526520e-02 0.0000000e+00 
6.4861295e-03 -6.3907668e-02 0.0000000e+00 
-1.9275496e-02 -6.2366351e-02 0.0000000e+00 
2.5845999e-03 -1.1406305e-01 0.0000000e+00 
-3.0796356e-02 -1.1193295e-01 0.0000000e+00 
-6.2294714e-03 -1.7910361e-01 0.0000000e+00 
-4.6671722e-02 -1.7663434e-01 0.0000000e+00 
-2.0899879e-02 -2.5914153e-01 0.0000000e+00 
-6.7768708e-02 -2.5675607e-01 0.0000000e+00 
-4.1195340e-02 -3.5072944e-01 0.0000000e+00 
-9.2451937e-02 -3.4466654e-01 0.0000000e+00 
-6.4905606e-02 -4.4431758e-01 0.0000000e+00 
-1.1921918e-01 -4.3474337e-01 0.0000000e+00 
-9.0876035e-02 -5.3785926e-01 0.0000000e+00 
-1.4717197e-01 -5.2513510e-01 0.0000000e+00 
-1.1810096e-01 -6.2995529e-01 0.0000000e+00 
-1.7553154e-01 -6.1454922e-01 0.0000000e+00 
-1.4576040e-01 -7.1967149e-01 0.0000000e+00 
-2.0365682e-01 -7.0209414e-01 0.0000000e+00 
-1.7321436e-01 -8.0639517e-01 0.0000000e+00 
-2.3121403e-01 -7.8784269e-01 0.0000000e+00 
REACTION 3 26  float
0.0000000e+00 0.0000000e+00 0.0000000e+00 
0.0000000e+00 0.0000000e+00 0.0000000e+00 
0.0000000e+00 0.0000000e+00 0.0000000e+00 
0.0000000e+00 0.0000000e+00 0.0000000e+00 
0.0000000e+00 0.0000000e+00 0.0000000e+00 
0.0000000e+00 0.0000000e+00 0.0000000e+00 
0.0000000e+00 0.0000000e+00 0.0000000e+00 
0.0000000e+00 0.0000000e+00 0.0000000e+00 
0.0000000e+00 0.0000000e+00 0.0000000e+00 
0.0000000e+00 0.0000000e+00 0.0000000e+00 
0.0000000e+00 0.0000000e+00 0.0000000e+00 
0.0000000e+00 0.0000000e+00 0.0000000e+00 
0.0000000e+00 0.0000000e+00 0.0000000e+00 
0.0000000e+00 0.0000000e+00 0.0000000e+00 
0.0000000e+00 0.0000000e+00 0.0000000e+00 
0.0000000e+00 0.0000000e+00 0.0000000e+00 
0.0000000e+00 0.0000000e+00 0.0000000e+00 
0.0000000e+00 0.0000000e+00 0.0000000e+00 
0.0000000e+00 0.0000000e+00 0.0000000e+00 
0.0000000e+00 0.0000000e+00 0.0000000e+00 
0.0000000e+00 0.0000000e+00 0.0000000e+00 
0.0000000e+00 0.0000000e+00 0.0000000e+00 
0.0000000e+00 0.0000000e+00 0.0000000e+00 
0.0000000e+00 0.0000000e+00 0.0000000e+00 
0.0000000e+00 0.0000000e+00 0.0000000e+00 
0.0000000e+00 0.0000000e+00 0.0000000e+00 
VON_MISES_STRESS 1 26  float
8.9552026e+09
8.7832381e+09
8.6052291e+09
8.2333363e+09
7.9028685e+09
7.4988529e+09
7.1863685e+09
6.7312184e+09
6.4314747e+09
5.9262740e+09
5.6328535e+09
5.0772741e+09
4.8124303e+09
4.2091599e+09
3.9597980e+09
3.3324803e+09
3.1421665e+09
2.5448451e+09
2.3858191e+09
1.8202729e+09
1.6889267e+09
1.1576328e+09
1.0511062e+09
5.9829370e+08
5.7749043e+08
2.0902579e+08
CELL_DATA 24
FIELD FieldData 0
