# vtk DataFile Version 4.0
vtk output
ASCII
DATASET UNSTRUCTURED_GRID
POINTS 26 float
0.0000000e+00 1.0000000e-01 0.0000000e+00 
0.0000000e+00 0.0000000e+00 0.0000000e+00 
1.4766368e-01 1.0000000e-01 0.0000000e+00 
1.4883940e-01 0.0000000e+00 0.0000000e+00 
3.0036214e-01 1.0000000e-01 0.0000000e+00 
3.0422947e-01 0.0000000e+00 0.0000000e+00 
4.6008557e-01 1.0000000e-01 0.0000000e+00 
4.6697357e-01 0.0000000e+00 0.0000000e+00 
6.2771249e-01 1.0000000e-01 0.0000000e+00 
6.3798475e-01 0.0000000e+00 0.0000000e+00 
8.0424988e-01 1.0000000e-01 0.0000000e+00 
8.1830680e-01 0.0000000e+00 0.0000000e+00 
9.9085975e-01 1.0000000e-01 0.0000000e+00 
1.0091403e+00 0.0000000e+00 0.0000000e+00 
1.1816932e+00 1.0000000e-01 0.0000000e+00 
1.1957501e+00 0.0000000e+00 0.0000000e+00 
1.3620152e+00 1.0000000e-01 0.0000000e+00 
1.3722875e+00 0.0000000e+00 0.0000000e+00 
1.5330265e+00 1.0000000e-01 0.0000000e+00 
1.5399145e+00 0.0000000e+00 0.0000000e+00 
1.6957705e+00 1.0000000e-01 0.0000000e+00 
1.6996379e+00 0.0000000e+00 0.0000000e+00 
1.8511606e+00 1.0000000e-01 0.0000000e+00 
1.8523363e+00 0.0000000e+00 0.0000000e+00 
2.0000000e+00 1.0000000e-01 0.0000000e+00 
2.0000000e+00 0.0000000e+00 0.0000000e+00 

CELLS 24 96
3 25 24 23
3 0 1 2
3 1 3 2
3 2 3 4
3 24 22 23
3 23 22 21
3 3 5 4
3 4 5 6
3 22 20 21
3 21 20 19
3 5 7 6
3 6 7 8
3 20 18 19
3 19 18 17
3 7 9 8
3 8 9 10
3 18 16 17
3 17 16 15
3 9 11 10
3 10 11 12
3 16 14 15
3 15 14 13
3 11 13 12
3 12 13 14

CELL_TYPES 24
5
5
5
5
5
5
5
5
5
5
5
5
5
5
5
5
5
5
5
5
5
5
5
5
POINT_DATA 26
FIELD FieldData 3
DISPLACEMENT 3 26  float
0.0000000e+00 0.0000000e+00 0.0000000e+00 
0.0000000e+00 0.0000000e+00 0.0000000e+00 
6.4301621e-03 -1.2947376e-02 0.0000000e+00 
-9.3902107e-03 -1.1700817e-02 0.0000000e+00 
8.6415485e-03 -5.0249297e-02 0.0000000e+00 
-2.1768464e-02 -4.6629082e-02 0.0000000e+00 
3.1821572e-03 -1.1160547e-01 0.0000000e+00 
-4.0459096e-02 -1.0480734e-01 0.0000000e+00 
-1.2917658e-02 -1.9616123e-01 0.0000000e+00 
-6.8417586e-02 -1.8593507e-01 0.0000000e+00 
-4.2059083e-02 -3.0288070e-01 0.0000000e+00 
-1.0810918e-01 -2.8949079e-01 0.0000000e+00 
-8.6021490e-02 -4.3067816e-01 0.0000000e+00 
-1.6139635e-01 -4.1484198e-01 0.0000000e+00 
-1.4350671e-01 -5.7329309e-01 0.0000000e+00 
-2.2382727e-01 -5.4953730e-01 0.0000000e+00 
-2.0796672e-01 -7.1593356e-01 0.0000000e+00 
-2.9119483e-01 -6.8513978e-01 0.0000000e+00 
-2.7659732e-01 -8.5617435e-01 0.0000000e+00 
-3.6129054e-01 -8.1941587e-01 0.0000000e+00 
-3.4716463e-01 -9.9263901e-01 0.0000000e+00 
-4.3233523e-01 -9.5102751e-01 0.0000000e+00 
-4.1796944e-01 -1.1245980e+00 0.0000000e+00 
-5.0294667e-01 -1.0792043e+00 0.0000000e+00 
-4.8774675e-01 -1.2517040e+00 0.0000000e+00 
-5.7263106e-01 -1.2045602e+00 0.0000000e+00 
REACTION 3 26  float
0.0000000e+00 0.0000000e+00 0.0000000e+00 
0.0000000e+00 0.0000000e+00 0.0000000e+00 
0.0000000e+00 0.0000000e+00 0.0000000e+00 
0.0000000e+00 0.0000000e+00 0.0000000e+00 
0.0000000e+00 0.0000000e+00 0.0000000e+00 
0.0000000e+00 0.0000000e+00 0.0000000e+00 
0.0000000e+00 0.0000000e+00 0.0000000e+00 
0.0000000e+00 0.0000000e+00 0.0000000e+00 
0.0000000e+00 0.0000000e+00 0.0000000e+00 
0.0000000e+00 0.0000000e+00 0.0000000e+00 
0.0000000e+00 0.0000000e+00 0.0000000e+00 
0.0000000e+00 0.0000000e+00 0.0000000e+00 
0.0000000e+00 0.0000000e+00 0.0000000e+00 
0.0000000e+00 0.0000000e+00 0.0000000e+00 
0.0000000e+00 0.0000000e+00 0.0000000e+00 
0.0000000e+00 0.0000000e+00 0.0000000e+00 
0.0000000e+00 0.0000000e+00 0.0000000e+00 
0.0000000e+00 0.0000000e+00 0.0000000e+00 
0.0000000e+00 0.0000000e+00 0.0000000e+00 
0.0000000e+00 0.0000000e+00 0.0000000e+00 
0.0000000e+00 0.0000000e+00 0.0000000e+00 
0.0000000e+00 0.0000000e+00 0.0000000e+00 
0.0000000e+00 0.0000000e+00 0.0000000e+00 
0.0000000e+00 0.0000000e+00 0.0000000e+00 
0.0000000e+00 0.0000000e+00 0.0000000e+00 
0.0000000e+00 0.0000000e+00 0.0000000e+00 
VON_MISES_STRESS 1 26  float
1.5588821e+10
1.5404208e+10
1.4997333e+10
1.4283868e+10
1.3518019e+10
1.2680024e+10
1.2023820e+10
1.1079362e+10
1.0518140e+10
9.4932193e+09
9.0098217e+09
7.9241073e+09
7.5465923e+09
6.4263009e+09
6.1231683e+09
4.9999232e+09
4.8251336e+09
3.7805655e+09
3.6778975e+09
2.7024220e+09
2.6562217e+09
1.7376078e+09
1.7337711e+09
8.8359942e+08
9.0953357e+08
7.7494320e+07
CELL_DATA 24
FIELD FieldData 0
