# vtk DataFile Version 4.0
vtk output
ASCII
DATASET UNSTRUCTURED_GRID
POINTS 26 float
0.0000000e+00 1.0000000e-01 0.0000000e+00 
0.0000000e+00 0.0000000e+00 0.0000000e+00 
1.4766368e-01 1.0000000e-01 0.0000000e+00 
1.4883940e-01 0.0000000e+00 0.0000000e+00 
3.0036214e-01 1.0000000e-01 0.0000000e+00 
3.0422947e-01 0.0000000e+00 0.0000000e+00 
4.6008557e-01 1.0000000e-01 0.0000000e+00 
4.6697357e-01 0.0000000e+00 0.0000000e+00 
6.2771249e-01 1.0000000e-01 0.0000000e+00 
6.3798475e-01 0.0000000e+00 0.0000000e+00 
8.0424988e-01 1.0000000e-01 0.0000000e+00 
8.1830680e-01 0.0000000e+00 0.0000000e+00 
9.9085975e-01 1.0000000e-01 0.0000000e+00 
1.0091403e+00 0.0000000e+00 0.0000000e+00 
1.1816932e+00 1.0000000e-01 0.0000000e+00 
1.1957501e+00 0.0000000e+00 0.0000000e+00 
1.3620152e+00 1.0000000e-01 0.0000000e+00 
1.3722875e+00 0.0000000e+00 0.0000000e+00 
1.5330265e+00 1.0000000e-01 0.0000000e+00 
1.5399145e+00 0.0000000e+00 0.0000000e+00 
1.6957705e+00 1.0000000e-01 0.0000000e+00 
1.6996379e+00 0.0000000e+00 0.0000000e+00 
1.8511606e+00 1.0000000e-01 0.0000000e+00 
1.8523363e+00 0.0000000e+00 0.0000000e+00 
2.0000000e+00 1.0000000e-01 0.0000000e+00 
2.0000000e+00 0.0000000e+00 0.0000000e+00 

CELLS 24 96
3 25 24 23
3 0 1 2
3 1 3 2
3 2 3 4
3 24 22 23
3 23 22 21
3 3 5 4
3 4 5 6
3 22 20 21
3 21 20 19
3 5 7 6
3 6 7 8
3 20 18 19
3 19 18 17
3 7 9 8
3 8 9 10
3 18 16 17
3 17 16 15
3 9 11 10
3 10 11 12
3 16 14 15
3 15 14 13
3 11 13 12
3 12 13 14

CELL_TYPES 24
5
5
5
5
5
5
5
5
5
5
5
5
5
5
5
5
5
5
5
5
5
5
5
5
POINT_DATA 26
FIELD FieldData 3
DISPLACEMENT 3 26  float
0.0000000e+00 0.0000000e+00 0.0000000e+00 
0.0000000e+00 0.0000000e+00 0.0000000e+00 
7.4705100e-03 -1.6044306e-02 0.0000000e+00 
-1.1853941e-02 -1.4110574e-02 0.0000000e+00 
8.7131206e-03 -6.1754137e-02 0.0000000e+00 
-2.8013526e-02 -5.6098513e-02 0.0000000e+00 
-1.1521915e-03 -1.3576640e-01 0.0000000e+00 
-5.3131092e-02 -1.2518732e-01 0.0000000e+00 
-2.5891092e-02 -2.3595624e-01 0.0000000e+00 
-9.1064543e-02 -2.2013183e-01 0.0000000e+00 
-6.8225466e-02 -3.6013260e-01 0.0000000e+00 
-1.4477432e-01 -3.3947682e-01 0.0000000e+00 
-1.2991695e-01 -5.0629699e-01 0.0000000e+00 
-2.1629842e-01 -4.8180670e-01 0.0000000e+00 
-2.0865443e-01 -6.6695654e-01 0.0000000e+00 
-2.9932985e-01 -6.3274521e-01 0.0000000e+00 
-2.9534131e-01 -8.2569087e-01 0.0000000e+00 
-3.8814116e-01 -7.8308934e-01 0.0000000e+00 
-3.8645646e-01 -9.8035210e-01 0.0000000e+00 
-4.7996205e-01 -9.3077952e-01 0.0000000e+00 
-4.7934690e-01 -1.1299142e+00 0.0000000e+00 
-5.7267171e-01 -1.0747308e+00 0.0000000e+00 
-5.7208639e-01 -1.2739828e+00 0.0000000e+00 
-6.6469318e-01 -1.2144337e+00 0.0000000e+00 
-6.6329014e-01 -1.4125030e+00 0.0000000e+00 
-7.5566047e-01 -1.3508298e+00 0.0000000e+00 
REACTION 3 26  float
0.0000000e+00 0.0000000e+00 0.0000000e+00 
0.0000000e+00 0.0000000e+00 0.0000000e+00 
0.0000000e+00 0.0000000e+00 0.0000000e+00 
0.0000000e+00 0.0000000e+00 0.0000000e+00 
0.0000000e+00 0.0000000e+00 0.0000000e+00 
0.0000000e+00 0.0000000e+00 0.0000000e+00 
0.0000000e+00 0.0000000e+00 0.0000000e+00 
0.0000000e+00 0.0000000e+00 0.0000000e+00 
0.0000000e+00 0.0000000e+00 0.0000000e+00 
0.0000000e+00 0.0000000e+00 0.0000000e+00 
0.0000000e+00 0.0000000e+00 0.0000000e+00 
0.0000000e+00 0.0000000e+00 0.0000000e+00 
0.0000000e+00 0.0000000e+00 0.0000000e+00 
0.0000000e+00 0.0000000e+00 0.0000000e+00 
0.0000000e+00 0.0000000e+00 0.0000000e+00 
0.0000000e+00 0.0000000e+00 0.0000000e+00 
0.0000000e+00 0.0000000e+00 0.0000000e+00 
0.0000000e+00 0.0000000e+00 0.0000000e+00 
0.0000000e+00 0.0000000e+00 0.0000000e+00 
0.0000000e+00 0.0000000e+00 0.0000000e+00 
0.0000000e+00 0.0000000e+00 0.0000000e+00 
0.0000000e+00 0.0000000e+00 0.0000000e+00 
0.0000000e+00 0.0000000e+00 0.0000000e+00 
0.0000000e+00 0.0000000e+00 0.0000000e+00 
0.0000000e+00 0.0000000e+00 0.0000000e+00 
0.0000000e+00 0.0000000e+00 0.0000000e+00 
VON_MISES_STRESS 1 26  float
1.9053322e+10
1.8855100e+10
1.8285855e+10
1.7302960e+10
1.6232391e+10
1.5053215e+10
1.4186749e+10
1.2880040e+10
1.2189781e+10
1.0808087e+10
1.0263105e+10
8.8443320e+09
8.4664653e+09
7.0544440e+09
6.7976827e+09
5.4185339e+09
5.3305364e+09
4.0709824e+09
4.0790746e+09
2.9185405e+09
2.9981788e+09
1.9161190e+09
2.0468044e+09
1.0509752e+09
1.1505567e+09
1.1035748e+08
CELL_DATA 24
FIELD FieldData 0
