# vtk DataFile Version 4.0
vtk output
ASCII
DATASET UNSTRUCTURED_GRID
POINTS 26 float
0.0000000e+00 1.0000000e-01 0.0000000e+00 
0.0000000e+00 0.0000000e+00 0.0000000e+00 
1.4766368e-01 1.0000000e-01 0.0000000e+00 
1.4883940e-01 0.0000000e+00 0.0000000e+00 
3.0036214e-01 1.0000000e-01 0.0000000e+00 
3.0422947e-01 0.0000000e+00 0.0000000e+00 
4.6008557e-01 1.0000000e-01 0.0000000e+00 
4.6697357e-01 0.0000000e+00 0.0000000e+00 
6.2771249e-01 1.0000000e-01 0.0000000e+00 
6.3798475e-01 0.0000000e+00 0.0000000e+00 
8.0424988e-01 1.0000000e-01 0.0000000e+00 
8.1830680e-01 0.0000000e+00 0.0000000e+00 
9.9085975e-01 1.0000000e-01 0.0000000e+00 
1.0091403e+00 0.0000000e+00 0.0000000e+00 
1.1816932e+00 1.0000000e-01 0.0000000e+00 
1.1957501e+00 0.0000000e+00 0.0000000e+00 
1.3620152e+00 1.0000000e-01 0.0000000e+00 
1.3722875e+00 0.0000000e+00 0.0000000e+00 
1.5330265e+00 1.0000000e-01 0.0000000e+00 
1.5399145e+00 0.0000000e+00 0.0000000e+00 
1.6957705e+00 1.0000000e-01 0.0000000e+00 
1.6996379e+00 0.0000000e+00 0.0000000e+00 
1.8511606e+00 1.0000000e-01 0.0000000e+00 
1.8523363e+00 0.0000000e+00 0.0000000e+00 
2.0000000e+00 1.0000000e-01 0.0000000e+00 
2.0000000e+00 0.0000000e+00 0.0000000e+00 

CELLS 24 96
3 25 24 23
3 0 1 2
3 1 3 2
3 2 3 4
3 24 22 23
3 23 22 21
3 3 5 4
3 4 5 6
3 22 20 21
3 21 20 19
3 5 7 6
3 6 7 8
3 20 18 19
3 19 18 17
3 7 9 8
3 8 9 10
3 18 16 17
3 17 16 15
3 9 11 10
3 10 11 12
3 16 14 15
3 15 14 13
3 11 13 12
3 12 13 14

CELL_TYPES 24
5
5
5
5
5
5
5
5
5
5
5
5
5
5
5
5
5
5
5
5
5
5
5
5
POINT_DATA 26
FIELD FieldData 3
DISPLACEMENT 3 26  float
0.0000000e+00 0.0000000e+00 0.0000000e+00 
0.0000000e+00 0.0000000e+00 0.0000000e+00 
4.1082320e-03 -7.4433209e-03 0.0000000e+00 
-5.1734457e-03 -7.0877038e-03 0.0000000e+00 
6.6797305e-03 -2.9136473e-02 0.0000000e+00 
-1.1395227e-02 -2.8187782e-02 0.0000000e+00 
6.4878436e-03 -6.5521508e-02 0.0000000e+00 
-1.9903509e-02 -6.3855909e-02 0.0000000e+00 
2.2945225e-03 -1.1690056e-01 0.0000000e+00 
-3.1888280e-02 -1.1457696e-01 0.0000000e+00 
-7.0414222e-03 -1.8348160e-01 0.0000000e+00 
-4.8438996e-02 -1.8074881e-01 0.0000000e+00 
-2.2500450e-02 -2.6535583e-01 0.0000000e+00 
-7.0460856e-02 -2.6264426e-01 0.0000000e+00 
-4.3833174e-02 -3.5898119e-01 0.0000000e+00 
-9.6244976e-02 -3.5245270e-01 0.0000000e+00 
-6.8712264e-02 -4.5459375e-01 0.0000000e+00 
-1.2421364e-01 -4.4443154e-01 0.0000000e+00 
-9.5931493e-02 -5.5011374e-01 0.0000000e+00 
-1.5342693e-01 -5.3669971e-01 0.0000000e+00 
-1.2444289e-01 -6.4412540e-01 0.0000000e+00 
-1.8307158e-01 -6.2794876e-01 0.0000000e+00 
-1.5339360e-01 -7.3568773e-01 0.0000000e+00 
-2.1247903e-01 -7.1727943e-01 0.0000000e+00 
-1.8211871e-01 -8.2418668e-01 0.0000000e+00 
-2.4130417e-01 -8.0477661e-01 0.0000000e+00 
REACTION 3 26  float
0.0000000e+00 0.0000000e+00 0.0000000e+00 
0.0000000e+00 0.0000000e+00 0.0000000e+00 
0.0000000e+00 0.0000000e+00 0.0000000e+00 
0.0000000e+00 0.0000000e+00 0.0000000e+00 
0.0000000e+00 0.0000000e+00 0.0000000e+00 
0.0000000e+00 0.0000000e+00 0.0000000e+00 
0.0000000e+00 0.0000000e+00 0.0000000e+00 
0.0000000e+00 0.0000000e+00 0.0000000e+00 
0.0000000e+00 0.0000000e+00 0.0000000e+00 
0.0000000e+00 0.0000000e+00 0.0000000e+00 
0.0000000e+00 0.0000000e+00 0.0000000e+00 
0.0000000e+00 0.0000000e+00 0.0000000e+00 
0.0000000e+00 0.0000000e+00 0.0000000e+00 
0.0000000e+00 0.0000000e+00 0.0000000e+00 
0.0000000e+00 0.0000000e+00 0.0000000e+00 
0.0000000e+00 0.0000000e+00 0.0000000e+00 
0.0000000e+00 0.0000000e+00 0.0000000e+00 
0.0000000e+00 0.0000000e+00 0.0000000e+00 
0.0000000e+00 0.0000000e+00 0.0000000e+00 
0.0000000e+00 0.0000000e+00 0.0000000e+00 
0.0000000e+00 0.0000000e+00 0.0000000e+00 
0.0000000e+00 0.0000000e+00 0.0000000e+00 
0.0000000e+00 0.0000000e+00 0.0000000e+00 
0.0000000e+00 0.0000000e+00 0.0000000e+00 
0.0000000e+00 0.0000000e+00 0.0000000e+00 
0.0000000e+00 0.0000000e+00 0.0000000e+00 
VON_MISES_STRESS 1 26  float
9.1780516e+09
9.0049393e+09
8.8207892e+09
8.4396073e+09
8.0974976e+09
7.6821064e+09
7.3596703e+09
6.8913469e+09
6.5831613e+09
6.0633620e+09
5.7627976e+09
5.1915110e+09
4.9212462e+09
4.3016264e+09
4.0480893e+09
3.4042813e+09
3.2117921e+09
2.5990554e+09
2.4390039e+09
1.8589661e+09
1.7274707e+09
1.1823528e+09
1.0762382e+09
6.1056806e+08
5.9043968e+08
2.0918571e+08
CELL_DATA 24
FIELD FieldData 0
