# vtk DataFile Version 4.0
vtk output
ASCII
DATASET UNSTRUCTURED_GRID
POINTS 26 float
0.0000000e+00 1.0000000e-01 0.0000000e+00 
0.0000000e+00 0.0000000e+00 0.0000000e+00 
1.4766368e-01 1.0000000e-01 0.0000000e+00 
1.4883940e-01 0.0000000e+00 0.0000000e+00 
3.0036214e-01 1.0000000e-01 0.0000000e+00 
3.0422947e-01 0.0000000e+00 0.0000000e+00 
4.6008557e-01 1.0000000e-01 0.0000000e+00 
4.6697357e-01 0.0000000e+00 0.0000000e+00 
6.2771249e-01 1.0000000e-01 0.0000000e+00 
6.3798475e-01 0.0000000e+00 0.0000000e+00 
8.0424988e-01 1.0000000e-01 0.0000000e+00 
8.1830680e-01 0.0000000e+00 0.0000000e+00 
9.9085975e-01 1.0000000e-01 0.0000000e+00 
1.0091403e+00 0.0000000e+00 0.0000000e+00 
1.1816932e+00 1.0000000e-01 0.0000000e+00 
1.1957501e+00 0.0000000e+00 0.0000000e+00 
1.3620152e+00 1.0000000e-01 0.0000000e+00 
1.3722875e+00 0.0000000e+00 0.0000000e+00 
1.5330265e+00 1.0000000e-01 0.0000000e+00 
1.5399145e+00 0.0000000e+00 0.0000000e+00 
1.6957705e+00 1.0000000e-01 0.0000000e+00 
1.6996379e+00 0.0000000e+00 0.0000000e+00 
1.8511606e+00 1.0000000e-01 0.0000000e+00 
1.8523363e+00 0.0000000e+00 0.0000000e+00 
2.0000000e+00 1.0000000e-01 0.0000000e+00 
2.0000000e+00 0.0000000e+00 0.0000000e+00 

CELLS 24 96
3 25 24 23
3 0 1 2
3 1 3 2
3 2 3 4
3 24 22 23
3 23 22 21
3 3 5 4
3 4 5 6
3 22 20 21
3 21 20 19
3 5 7 6
3 6 7 8
3 20 18 19
3 19 18 17
3 7 9 8
3 8 9 10
3 18 16 17
3 17 16 15
3 9 11 10
3 10 11 12
3 16 14 15
3 15 14 13
3 11 13 12
3 12 13 14

CELL_TYPES 24
5
5
5
5
5
5
5
5
5
5
5
5
5
5
5
5
5
5
5
5
5
5
5
5
POINT_DATA 26
FIELD FieldData 3
DISPLACEMENT 3 26  float
0.0000000e+00 0.0000000e+00 0.0000000e+00 
0.0000000e+00 0.0000000e+00 0.0000000e+00 
6.1369310e-03 -1.2163791e-02 0.0000000e+00 
-8.7756412e-03 -1.1071660e-02 0.0000000e+00 
8.5102292e-03 -4.7289632e-02 0.0000000e+00 
-2.0224754e-02 -4.4131678e-02 0.0000000e+00 
4.0219082e-03 -1.0526803e-01 0.0000000e+00 
-3.7343446e-02 -9.9346586e-02 0.0000000e+00 
-1.0059220e-02 -1.8549913e-01 0.0000000e+00 
-6.2835090e-02 -1.7660148e-01 0.0000000e+00 
-3.5993889e-02 -2.8719941e-01 0.0000000e+00 
-9.8994613e-02 -2.7557331e-01 0.0000000e+00 
-7.5503148e-02 -4.0950176e-01 0.0000000e+00 
-1.4758886e-01 -3.9580974e-01 0.0000000e+00 
-1.2750167e-01 -5.4650521e-01 0.0000000e+00 
-2.0461227e-01 -5.2543133e-01 0.0000000e+00 
-1.8609533e-01 -6.8396676e-01 0.0000000e+00 
-2.6625544e-01 -6.5627843e-01 0.0000000e+00 
-2.4869527e-01 -8.1943786e-01 0.0000000e+00 
-3.3047932e-01 -7.8610975e-01 0.0000000e+00 
-3.1321102e-01 -9.5148152e-01 0.0000000e+00 
-3.9562136e-01 -9.1354579e-01 0.0000000e+00 
-3.7803513e-01 -1.0792985e+00 0.0000000e+00 
-4.6037716e-01 -1.0377638e+00 0.0000000e+00 
-4.4196138e-01 -1.2024755e+00 0.0000000e+00 
-5.2424586e-01 -1.1592910e+00 0.0000000e+00 
REACTION 3 26  float
0.0000000e+00 0.0000000e+00 0.0000000e+00 
0.0000000e+00 0.0000000e+00 0.0000000e+00 
0.0000000e+00 0.0000000e+00 0.0000000e+00 
0.0000000e+00 0.0000000e+00 0.0000000e+00 
0.0000000e+00 0.0000000e+00 0.0000000e+00 
0.0000000e+00 0.0000000e+00 0.0000000e+00 
0.0000000e+00 0.0000000e+00 0.0000000e+00 
0.0000000e+00 0.0000000e+00 0.0000000e+00 
0.0000000e+00 0.0000000e+00 0.0000000e+00 
0.0000000e+00 0.0000000e+00 0.0000000e+00 
0.0000000e+00 0.0000000e+00 0.0000000e+00 
0.0000000e+00 0.0000000e+00 0.0000000e+00 
0.0000000e+00 0.0000000e+00 0.0000000e+00 
0.0000000e+00 0.0000000e+00 0.0000000e+00 
0.0000000e+00 0.0000000e+00 0.0000000e+00 
0.0000000e+00 0.0000000e+00 0.0000000e+00 
0.0000000e+00 0.0000000e+00 0.0000000e+00 
0.0000000e+00 0.0000000e+00 0.0000000e+00 
0.0000000e+00 0.0000000e+00 0.0000000e+00 
0.0000000e+00 0.0000000e+00 0.0000000e+00 
0.0000000e+00 0.0000000e+00 0.0000000e+00 
0.0000000e+00 0.0000000e+00 0.0000000e+00 
0.0000000e+00 0.0000000e+00 0.0000000e+00 
0.0000000e+00 0.0000000e+00 0.0000000e+00 
0.0000000e+00 0.0000000e+00 0.0000000e+00 
0.0000000e+00 0.0000000e+00 0.0000000e+00 
VON_MISES_STRESS 1 26  float
1.4696268e+10
1.4512833e+10
1.4142728e+10
1.3486173e+10
1.2790086e+10
1.2025083e+10
1.1420366e+10
1.0555907e+10
1.0029971e+10
9.0867886e+09
8.6247731e+09
7.6185610e+09
7.2488468e+09
6.2016353e+09
5.8958223e+09
4.8393185e+09
4.6516076e+09
3.6649940e+09
3.5433106e+09
2.6193751e+09
2.5501112e+09
1.6791904e+09
1.6498541e+09
8.5458336e+08
8.7146534e+08
1.1243315e+08
CELL_DATA 24
FIELD FieldData 0
