# vtk DataFile Version 4.0
vtk output
ASCII
DATASET UNSTRUCTURED_GRID
POINTS 26 float
0.0000000e+00 1.0000000e-01 0.0000000e+00 
0.0000000e+00 0.0000000e+00 0.0000000e+00 
1.4766368e-01 1.0000000e-01 0.0000000e+00 
1.4883940e-01 0.0000000e+00 0.0000000e+00 
3.0036214e-01 1.0000000e-01 0.0000000e+00 
3.0422947e-01 0.0000000e+00 0.0000000e+00 
4.6008557e-01 1.0000000e-01 0.0000000e+00 
4.6697357e-01 0.0000000e+00 0.0000000e+00 
6.2771249e-01 1.0000000e-01 0.0000000e+00 
6.3798475e-01 0.0000000e+00 0.0000000e+00 
8.0424988e-01 1.0000000e-01 0.0000000e+00 
8.1830680e-01 0.0000000e+00 0.0000000e+00 
9.9085975e-01 1.0000000e-01 0.0000000e+00 
1.0091403e+00 0.0000000e+00 0.0000000e+00 
1.1816932e+00 1.0000000e-01 0.0000000e+00 
1.1957501e+00 0.0000000e+00 0.0000000e+00 
1.3620152e+00 1.0000000e-01 0.0000000e+00 
1.3722875e+00 0.0000000e+00 0.0000000e+00 
1.5330265e+00 1.0000000e-01 0.0000000e+00 
1.5399145e+00 0.0000000e+00 0.0000000e+00 
1.6957705e+00 1.0000000e-01 0.0000000e+00 
1.6996379e+00 0.0000000e+00 0.0000000e+00 
1.8511606e+00 1.0000000e-01 0.0000000e+00 
1.8523363e+00 0.0000000e+00 0.0000000e+00 
2.0000000e+00 1.0000000e-01 0.0000000e+00 
2.0000000e+00 0.0000000e+00 0.0000000e+00 

CELLS 24 96
3 25 24 23
3 0 1 2
3 1 3 2
3 2 3 4
3 24 22 23
3 23 22 21
3 3 5 4
3 4 5 6
3 22 20 21
3 21 20 19
3 5 7 6
3 6 7 8
3 20 18 19
3 19 18 17
3 7 9 8
3 8 9 10
3 18 16 17
3 17 16 15
3 9 11 10
3 10 11 12
3 16 14 15
3 15 14 13
3 11 13 12
3 12 13 14

CELL_TYPES 24
5
5
5
5
5
5
5
5
5
5
5
5
5
5
5
5
5
5
5
5
5
5
5
5
POINT_DATA 26
FIELD FieldData 3
DISPLACEMENT 3 26  float
0.0000000e+00 0.0000000e+00 0.0000000e+00 
0.0000000e+00 0.0000000e+00 0.0000000e+00 
7.2368672e-03 -1.5297957e-02 0.0000000e+00 
-1.1255599e-02 -1.3540395e-02 0.0000000e+00 
8.7590525e-03 -5.9011348e-02 0.0000000e+00 
-2.6490903e-02 -5.3873617e-02 0.0000000e+00 
3.0052244e-05 -1.3007881e-01 0.0000000e+00 
-5.0037045e-02 -1.2044891e-01 0.0000000e+00 
-2.2550661e-02 -2.2671668e-01 0.0000000e+00 
-8.5552193e-02 -2.1227677e-01 0.0000000e+00 
-6.1665326e-02 -3.4702936e-01 0.0000000e+00 
-1.3590647e-01 -3.2814404e-01 0.0000000e+00 
-1.1911671e-01 -4.8923868e-01 0.0000000e+00 
-2.0312627e-01 -4.6682858e-01 0.0000000e+00 
-1.9285898e-01 -6.4611733e-01 0.0000000e+00 
-2.8135964e-01 -6.1436826e-01 0.0000000e+00 
-2.7439490e-01 -8.0156189e-01 0.0000000e+00 
-3.6523232e-01 -7.6169914e-01 0.0000000e+00 
-3.6035326e-01 -9.5333457e-01 0.0000000e+00 
-4.5209143e-01 -9.0670222e-01 0.0000000e+00 
-4.4815904e-01 -1.1003129e+00 0.0000000e+00 
-5.3987980e-01 -1.0482216e+00 0.0000000e+00 
-5.3592062e-01 -1.2420166e+00 0.0000000e+00 
-6.2705070e-01 -1.1856803e+00 0.0000000e+00 
-6.2226558e-01 -1.3783182e+00 0.0000000e+00 
-7.1319336e-01 -1.3199450e+00 0.0000000e+00 
REACTION 3 26  float
0.0000000e+00 0.0000000e+00 0.0000000e+00 
0.0000000e+00 0.0000000e+00 0.0000000e+00 
0.0000000e+00 0.0000000e+00 0.0000000e+00 
0.0000000e+00 0.0000000e+00 0.0000000e+00 
0.0000000e+00 0.0000000e+00 0.0000000e+00 
0.0000000e+00 0.0000000e+00 0.0000000e+00 
0.0000000e+00 0.0000000e+00 0.0000000e+00 
0.0000000e+00 0.0000000e+00 0.0000000e+00 
0.0000000e+00 0.0000000e+00 0.0000000e+00 
0.0000000e+00 0.0000000e+00 0.0000000e+00 
0.0000000e+00 0.0000000e+00 0.0000000e+00 
0.0000000e+00 0.0000000e+00 0.0000000e+00 
0.0000000e+00 0.0000000e+00 0.0000000e+00 
0.0000000e+00 0.0000000e+00 0.0000000e+00 
0.0000000e+00 0.0000000e+00 0.0000000e+00 
0.0000000e+00 0.0000000e+00 0.0000000e+00 
0.0000000e+00 0.0000000e+00 0.0000000e+00 
0.0000000e+00 0.0000000e+00 0.0000000e+00 
0.0000000e+00 0.0000000e+00 0.0000000e+00 
0.0000000e+00 0.0000000e+00 0.0000000e+00 
0.0000000e+00 0.0000000e+00 0.0000000e+00 
0.0000000e+00 0.0000000e+00 0.0000000e+00 
0.0000000e+00 0.0000000e+00 0.0000000e+00 
0.0000000e+00 0.0000000e+00 0.0000000e+00 
0.0000000e+00 0.0000000e+00 0.0000000e+00 
0.0000000e+00 0.0000000e+00 0.0000000e+00 
VON_MISES_STRESS 1 26  float
1.8227384e+10
1.8034178e+10
1.7506564e+10
1.6595650e+10
1.5602591e+10
1.4513691e+10
1.3698491e+10
1.2485894e+10
1.1824760e+10
1.0533843e+10
9.9999744e+09
8.6639923e+09
8.2815099e+09
6.9400161e+09
6.6667520e+09
5.3480013e+09
5.2338908e+09
4.0240264e+09
4.0003341e+09
2.8815759e+09
2.9260040e+09
1.8792745e+09
1.9729027e+09
9.9565280e+08
1.0693666e+09
5.8107392e+07
CELL_DATA 24
FIELD FieldData 0
