# vtk DataFile Version 4.0
vtk output
ASCII
DATASET UNSTRUCTURED_GRID
POINTS 26 float
0.0000000e+00 1.0000000e-01 0.0000000e+00 
0.0000000e+00 0.0000000e+00 0.0000000e+00 
1.4766368e-01 1.0000000e-01 0.0000000e+00 
1.4883940e-01 0.0000000e+00 0.0000000e+00 
3.0036214e-01 1.0000000e-01 0.0000000e+00 
3.0422947e-01 0.0000000e+00 0.0000000e+00 
4.6008557e-01 1.0000000e-01 0.0000000e+00 
4.6697357e-01 0.0000000e+00 0.0000000e+00 
6.2771249e-01 1.0000000e-01 0.0000000e+00 
6.3798475e-01 0.0000000e+00 0.0000000e+00 
8.0424988e-01 1.0000000e-01 0.0000000e+00 
8.1830680e-01 0.0000000e+00 0.0000000e+00 
9.9085975e-01 1.0000000e-01 0.0000000e+00 
1.0091403e+00 0.0000000e+00 0.0000000e+00 
1.1816932e+00 1.0000000e-01 0.0000000e+00 
1.1957501e+00 0.0000000e+00 0.0000000e+00 
1.3620152e+00 1.0000000e-01 0.0000000e+00 
1.3722875e+00 0.0000000e+00 0.0000000e+00 
1.5330265e+00 1.0000000e-01 0.0000000e+00 
1.5399145e+00 0.0000000e+00 0.0000000e+00 
1.6957705e+00 1.0000000e-01 0.0000000e+00 
1.6996379e+00 0.0000000e+00 0.0000000e+00 
1.8511606e+00 1.0000000e-01 0.0000000e+00 
1.8523363e+00 0.0000000e+00 0.0000000e+00 
2.0000000e+00 1.0000000e-01 0.0000000e+00 
2.0000000e+00 0.0000000e+00 0.0000000e+00 

CELLS 24 96
3 25 24 23
3 0 1 2
3 1 3 2
3 2 3 4
3 24 22 23
3 23 22 21
3 3 5 4
3 4 5 6
3 22 20 21
3 21 20 19
3 5 7 6
3 6 7 8
3 20 18 19
3 19 18 17
3 7 9 8
3 8 9 10
3 18 16 17
3 17 16 15
3 9 11 10
3 10 11 12
3 16 14 15
3 15 14 13
3 11 13 12
3 12 13 14

CELL_TYPES 24
5
5
5
5
5
5
5
5
5
5
5
5
5
5
5
5
5
5
5
5
5
5
5
5
POINT_DATA 26
FIELD FieldData 3
DISPLACEMENT 3 26  float
0.0000000e+00 0.0000000e+00 0.0000000e+00 
0.0000000e+00 0.0000000e+00 0.0000000e+00 
1.9558996e-03 -3.2989008e-03 0.0000000e+00 
-2.1997462e-03 -3.2743905e-03 0.0000000e+00 
3.5374418e-03 -1.2924939e-02 0.0000000e+00 
-4.5809243e-03 -1.2928915e-02 0.0000000e+00 
4.5210235e-03 -2.9175667e-02 0.0000000e+00 
-7.3941676e-03 -2.9312646e-02 0.0000000e+00 
4.6340176e-03 -5.2351702e-02 0.0000000e+00 
-1.0881926e-02 -5.2773900e-02 0.0000000e+00 
3.6094824e-03 -8.2735568e-02 0.0000000e+00 
-1.5268912e-02 -8.3642788e-02 0.0000000e+00 
1.2015956e-03 -1.2056132e-01 0.0000000e+00 
-2.0740038e-02 -1.2219162e-01 0.0000000e+00 
-2.5613538e-03 -1.6432153e-01 0.0000000e+00 
-2.6859185e-02 -1.6481957e-01 0.0000000e+00 
-7.2896541e-03 -2.0948164e-01 0.0000000e+00 
-3.3332996e-02 -2.0879973e-01 0.0000000e+00 
-1.2706432e-02 -2.5497505e-01 0.0000000e+00 
-3.9968282e-02 -2.5315592e-01 0.0000000e+00 
-1.8559093e-02 -3.0002227e-01 0.0000000e+00 
-4.6593916e-02 -2.9717001e-01 0.0000000e+00 
-2.4634873e-02 -3.4406677e-01 0.0000000e+00 
-5.3067174e-02 -3.4032056e-01 0.0000000e+00 
-3.0764934e-02 -3.8671920e-01 0.0000000e+00 
-5.9297640e-02 -3.8255408e-01 0.0000000e+00 
REACTION 3 26  float
0.0000000e+00 0.0000000e+00 0.0000000e+00 
0.0000000e+00 0.0000000e+00 0.0000000e+00 
0.0000000e+00 0.0000000e+00 0.0000000e+00 
0.0000000e+00 0.0000000e+00 0.0000000e+00 
0.0000000e+00 0.0000000e+00 0.0000000e+00 
0.0000000e+00 0.0000000e+00 0.0000000e+00 
0.0000000e+00 0.0000000e+00 0.0000000e+00 
0.0000000e+00 0.0000000e+00 0.0000000e+00 
0.0000000e+00 0.0000000e+00 0.0000000e+00 
0.0000000e+00 0.0000000e+00 0.0000000e+00 
0.0000000e+00 0.0000000e+00 0.0000000e+00 
0.0000000e+00 0.0000000e+00 0.0000000e+00 
0.0000000e+00 0.0000000e+00 0.0000000e+00 
0.0000000e+00 0.0000000e+00 0.0000000e+00 
0.0000000e+00 0.0000000e+00 0.0000000e+00 
0.0000000e+00 0.0000000e+00 0.0000000e+00 
0.0000000e+00 0.0000000e+00 0.0000000e+00 
0.0000000e+00 0.0000000e+00 0.0000000e+00 
0.0000000e+00 0.0000000e+00 0.0000000e+00 
0.0000000e+00 0.0000000e+00 0.0000000e+00 
0.0000000e+00 0.0000000e+00 0.0000000e+00 
0.0000000e+00 0.0000000e+00 0.0000000e+00 
0.0000000e+00 0.0000000e+00 0.0000000e+00 
0.0000000e+00 0.0000000e+00 0.0000000e+00 
0.0000000e+00 0.0000000e+00 0.0000000e+00 
0.0000000e+00 0.0000000e+00 0.0000000e+00 
VON_MISES_STRESS 1 26  float
4.1358881e+09
4.0202107e+09
3.9530424e+09
3.7733268e+09
3.6507607e+09
3.4680540e+09
3.3432509e+09
3.1429033e+09
3.0138378e+09
2.7939443e+09
2.6580270e+09
2.4159905e+09
2.2844544e+09
2.0181981e+09
1.8865083e+09
1.6073541e+09
1.4980964e+09
1.2313910e+09
1.1332104e+09
8.8109114e+08
7.9398048e+08
5.6016723e+08
4.8561024e+08
2.9554262e+08
2.7540080e+08
1.4000234e+08
CELL_DATA 24
FIELD FieldData 0
