# vtk DataFile Version 4.0
vtk output
ASCII
DATASET UNSTRUCTURED_GRID
POINTS 26 float
0.0000000e+00 1.0000000e-01 0.0000000e+00 
0.0000000e+00 0.0000000e+00 0.0000000e+00 
1.4766368e-01 1.0000000e-01 0.0000000e+00 
1.4883940e-01 0.0000000e+00 0.0000000e+00 
3.0036214e-01 1.0000000e-01 0.0000000e+00 
3.0422947e-01 0.0000000e+00 0.0000000e+00 
4.6008557e-01 1.0000000e-01 0.0000000e+00 
4.6697357e-01 0.0000000e+00 0.0000000e+00 
6.2771249e-01 1.0000000e-01 0.0000000e+00 
6.3798475e-01 0.0000000e+00 0.0000000e+00 
8.0424988e-01 1.0000000e-01 0.0000000e+00 
8.1830680e-01 0.0000000e+00 0.0000000e+00 
9.9085975e-01 1.0000000e-01 0.0000000e+00 
1.0091403e+00 0.0000000e+00 0.0000000e+00 
1.1816932e+00 1.0000000e-01 0.0000000e+00 
1.1957501e+00 0.0000000e+00 0.0000000e+00 
1.3620152e+00 1.0000000e-01 0.0000000e+00 
1.3722875e+00 0.0000000e+00 0.0000000e+00 
1.5330265e+00 1.0000000e-01 0.0000000e+00 
1.5399145e+00 0.0000000e+00 0.0000000e+00 
1.6957705e+00 1.0000000e-01 0.0000000e+00 
1.6996379e+00 0.0000000e+00 0.0000000e+00 
1.8511606e+00 1.0000000e-01 0.0000000e+00 
1.8523363e+00 0.0000000e+00 0.0000000e+00 
2.0000000e+00 1.0000000e-01 0.0000000e+00 
2.0000000e+00 0.0000000e+00 0.0000000e+00 

CELLS 24 96
3 25 24 23
3 0 1 2
3 1 3 2
3 2 3 4
3 24 22 23
3 23 22 21
3 3 5 4
3 4 5 6
3 22 20 21
3 21 20 19
3 5 7 6
3 6 7 8
3 20 18 19
3 19 18 17
3 7 9 8
3 8 9 10
3 18 16 17
3 17 16 15
3 9 11 10
3 10 11 12
3 16 14 15
3 15 14 13
3 11 13 12
3 12 13 14

CELL_TYPES 24
5
5
5
5
5
5
5
5
5
5
5
5
5
5
5
5
5
5
5
5
5
5
5
5
POINT_DATA 26
FIELD FieldData 3
DISPLACEMENT 3 26  float
0.0000000e+00 0.0000000e+00 0.0000000e+00 
0.0000000e+00 0.0000000e+00 0.0000000e+00 
6.9416044e-03 -1.4400336e-02 0.0000000e+00 
-1.0539671e-02 -1.2846013e-02 0.0000000e+00 
8.7620122e-03 -5.5686936e-02 0.0000000e+00 
-2.4673196e-02 -5.1150225e-02 0.0000000e+00 
1.3402461e-03 -1.2312290e-01 0.0000000e+00 
-4.6345148e-02 -1.1460571e-01 0.0000000e+00 
-1.8701250e-02 -2.1530685e-01 0.0000000e+00 
-7.8957126e-02 -2.0250809e-01 0.0000000e+00 
-5.3964332e-02 -3.3068657e-01 0.0000000e+00 
-1.2524527e-01 -3.1392288e-01 0.0000000e+00 
-1.0627031e-01 -4.6775115e-01 0.0000000e+00 
-1.8719606e-01 -4.4785884e-01 0.0000000e+00 
-1.7387629e-01 -6.1962050e-01 0.0000000e+00 
-2.5950021e-01 -5.9089381e-01 0.0000000e+00 
-2.4902183e-01 -7.7063394e-01 0.0000000e+00 
-3.3722135e-01 -7.3416823e-01 0.0000000e+00 
-3.2853630e-01 -9.1846365e-01 0.0000000e+00 
-4.1786367e-01 -8.7550503e-01 0.0000000e+00 
-4.0995818e-01 -1.0618795e+00 0.0000000e+00 
-4.9946263e-01 -1.0136701e+00 0.0000000e+00 
-4.9145430e-01 -1.2003007e+00 0.0000000e+00 
-5.8052170e-01 -1.1480079e+00 0.0000000e+00 
-5.7168096e-01 -1.3335136e+00 0.0000000e+00 
-6.6058785e-01 -1.2792910e+00 0.0000000e+00 
REACTION 3 26  float
0.0000000e+00 0.0000000e+00 0.0000000e+00 
0.0000000e+00 0.0000000e+00 0.0000000e+00 
0.0000000e+00 0.0000000e+00 0.0000000e+00 
0.0000000e+00 0.0000000e+00 0.0000000e+00 
0.0000000e+00 0.0000000e+00 0.0000000e+00 
0.0000000e+00 0.0000000e+00 0.0000000e+00 
0.0000000e+00 0.0000000e+00 0.0000000e+00 
0.0000000e+00 0.0000000e+00 0.0000000e+00 
0.0000000e+00 0.0000000e+00 0.0000000e+00 
0.0000000e+00 0.0000000e+00 0.0000000e+00 
0.0000000e+00 0.0000000e+00 0.0000000e+00 
0.0000000e+00 0.0000000e+00 0.0000000e+00 
0.0000000e+00 0.0000000e+00 0.0000000e+00 
0.0000000e+00 0.0000000e+00 0.0000000e+00 
0.0000000e+00 0.0000000e+00 0.0000000e+00 
0.0000000e+00 0.0000000e+00 0.0000000e+00 
0.0000000e+00 0.0000000e+00 0.0000000e+00 
0.0000000e+00 0.0000000e+00 0.0000000e+00 
0.0000000e+00 0.0000000e+00 0.0000000e+00 
0.0000000e+00 0.0000000e+00 0.0000000e+00 
0.0000000e+00 0.0000000e+00 0.0000000e+00 
0.0000000e+00 0.0000000e+00 0.0000000e+00 
0.0000000e+00 0.0000000e+00 0.0000000e+00 
0.0000000e+00 0.0000000e+00 0.0000000e+00 
0.0000000e+00 0.0000000e+00 0.0000000e+00 
0.0000000e+00 0.0000000e+00 0.0000000e+00 
VON_MISES_STRESS 1 26  float
1.7226572e+10
1.7037786e+10
1.6558135e+10
1.5727666e+10
1.4824471e+10
1.3837259e+10
1.3083376e+10
1.1978233e+10
1.1353960e+10
1.0168259e+10
9.6510321e+09
8.4125993e+09
8.0286054e+09
6.7718287e+09
6.4832246e+09
5.2382295e+09
5.0970634e+09
3.9487644e+09
3.8910730e+09
2.8249684e+09
2.8310715e+09
1.8304102e+09
1.8832360e+09
9.3176128e+08
9.7560550e+08
1.0135885e+06
CELL_DATA 24
FIELD FieldData 0
