# vtk DataFile Version 4.0
vtk output
ASCII
DATASET UNSTRUCTURED_GRID
POINTS 26 float
0.0000000e+00 1.0000000e-01 0.0000000e+00 
0.0000000e+00 0.0000000e+00 0.0000000e+00 
1.4766368e-01 1.0000000e-01 0.0000000e+00 
1.4883940e-01 0.0000000e+00 0.0000000e+00 
3.0036214e-01 1.0000000e-01 0.0000000e+00 
3.0422947e-01 0.0000000e+00 0.0000000e+00 
4.6008557e-01 1.0000000e-01 0.0000000e+00 
4.6697357e-01 0.0000000e+00 0.0000000e+00 
6.2771249e-01 1.0000000e-01 0.0000000e+00 
6.3798475e-01 0.0000000e+00 0.0000000e+00 
8.0424988e-01 1.0000000e-01 0.0000000e+00 
8.1830680e-01 0.0000000e+00 0.0000000e+00 
9.9085975e-01 1.0000000e-01 0.0000000e+00 
1.0091403e+00 0.0000000e+00 0.0000000e+00 
1.1816932e+00 1.0000000e-01 0.0000000e+00 
1.1957501e+00 0.0000000e+00 0.0000000e+00 
1.3620152e+00 1.0000000e-01 0.0000000e+00 
1.3722875e+00 0.0000000e+00 0.0000000e+00 
1.5330265e+00 1.0000000e-01 0.0000000e+00 
1.5399145e+00 0.0000000e+00 0.0000000e+00 
1.6957705e+00 1.0000000e-01 0.0000000e+00 
1.6996379e+00 0.0000000e+00 0.0000000e+00 
1.8511606e+00 1.0000000e-01 0.0000000e+00 
1.8523363e+00 0.0000000e+00 0.0000000e+00 
2.0000000e+00 1.0000000e-01 0.0000000e+00 
2.0000000e+00 0.0000000e+00 0.0000000e+00 

CELLS 24 96
3 25 24 23
3 0 1 2
3 1 3 2
3 2 3 4
3 24 22 23
3 23 22 21
3 3 5 4
3 4 5 6
3 22 20 21
3 21 20 19
3 5 7 6
3 6 7 8
3 20 18 19
3 19 18 17
3 7 9 8
3 8 9 10
3 18 16 17
3 17 16 15
3 9 11 10
3 10 11 12
3 16 14 15
3 15 14 13
3 11 13 12
3 12 13 14

CELL_TYPES 24
5
5
5
5
5
5
5
5
5
5
5
5
5
5
5
5
5
5
5
5
5
5
5
5
POINT_DATA 26
FIELD FieldData 3
DISPLACEMENT 3 26  float
0.0000000e+00 0.0000000e+00 0.0000000e+00 
0.0000000e+00 0.0000000e+00 0.0000000e+00 
3.3420993e-03 -5.8903201e-03 0.0000000e+00 
-4.0349443e-03 -5.6960341e-03 0.0000000e+00 
5.6729717e-03 -2.3077874e-02 0.0000000e+00 
-8.7198066e-03 -2.2604868e-02 0.0000000e+00 
6.2279305e-03 -5.2000783e-02 0.0000000e+00 
-1.4845621e-02 -5.1251978e-02 0.0000000e+00 
4.1959835e-03 -9.3032591e-02 0.0000000e+00 
-2.3180095e-02 -9.2131600e-02 0.0000000e+00 
-1.1893067e-03 -1.4648846e-01 0.0000000e+00 
-3.4434892e-02 -1.4568481e-01 0.0000000e+00 
-1.0605188e-02 -2.1259043e-01 0.0000000e+00 
-4.9206693e-02 -2.1225128e-01 0.0000000e+00 
-2.3925448e-02 -2.8857830e-01 0.0000000e+00 
-6.6353545e-02 -2.8554517e-01 0.0000000e+00 
-3.9719239e-02 -3.6654282e-01 0.0000000e+00 
-8.4881157e-02 -3.6087501e-01 0.0000000e+00 
-5.7187550e-02 -4.4471955e-01 0.0000000e+00 
-1.0417747e-01 -4.3664047e-01 0.0000000e+00 
-7.5622238e-02 -5.2186775e-01 0.0000000e+00 
-1.2370595e-01 -5.1169831e-01 0.0000000e+00 
-9.4438493e-02 -5.9713435e-01 0.0000000e+00 
-1.4302142e-01 -5.8524156e-01 0.0000000e+00 
-1.1317640e-01 -6.6994339e-01 0.0000000e+00 
-1.6187720e-01 -6.5727043e-01 0.0000000e+00 
REACTION 3 26  float
0.0000000e+00 0.0000000e+00 0.0000000e+00 
0.0000000e+00 0.0000000e+00 0.0000000e+00 
0.0000000e+00 0.0000000e+00 0.0000000e+00 
0.0000000e+00 0.0000000e+00 0.0000000e+00 
0.0000000e+00 0.0000000e+00 0.0000000e+00 
0.0000000e+00 0.0000000e+00 0.0000000e+00 
0.0000000e+00 0.0000000e+00 0.0000000e+00 
0.0000000e+00 0.0000000e+00 0.0000000e+00 
0.0000000e+00 0.0000000e+00 0.0000000e+00 
0.0000000e+00 0.0000000e+00 0.0000000e+00 
0.0000000e+00 0.0000000e+00 0.0000000e+00 
0.0000000e+00 0.0000000e+00 0.0000000e+00 
0.0000000e+00 0.0000000e+00 0.0000000e+00 
0.0000000e+00 0.0000000e+00 0.0000000e+00 
0.0000000e+00 0.0000000e+00 0.0000000e+00 
0.0000000e+00 0.0000000e+00 0.0000000e+00 
0.0000000e+00 0.0000000e+00 0.0000000e+00 
0.0000000e+00 0.0000000e+00 0.0000000e+00 
0.0000000e+00 0.0000000e+00 0.0000000e+00 
0.0000000e+00 0.0000000e+00 0.0000000e+00 
0.0000000e+00 0.0000000e+00 0.0000000e+00 
0.0000000e+00 0.0000000e+00 0.0000000e+00 
0.0000000e+00 0.0000000e+00 0.0000000e+00 
0.0000000e+00 0.0000000e+00 0.0000000e+00 
0.0000000e+00 0.0000000e+00 0.0000000e+00 
0.0000000e+00 0.0000000e+00 0.0000000e+00 
VON_MISES_STRESS 1 26  float
7.3097175e+09
7.1495905e+09
7.0139858e+09
6.7086807e+09
6.4583357e+09
6.1342152e+09
5.8916378e+09
5.5290752e+09
5.2902420e+09
4.8883267e+09
4.6482529e+09
4.2049582e+09
3.9824876e+09
3.4977736e+09
3.2830986e+09
2.7766615e+09
2.6071112e+09
2.1236225e+09
1.9774586e+09
1.5193914e+09
1.3947249e+09
9.6587162e+08
8.6190355e+08
5.0241504e+08
4.7863725e+08
1.9902914e+08
CELL_DATA 24
FIELD FieldData 0
