# vtk DataFile Version 4.0
vtk output
ASCII
DATASET UNSTRUCTURED_GRID
POINTS 26 float
0.0000000e+00 1.0000000e-01 0.0000000e+00 
0.0000000e+00 0.0000000e+00 0.0000000e+00 
1.4766368e-01 1.0000000e-01 0.0000000e+00 
1.4883940e-01 0.0000000e+00 0.0000000e+00 
3.0036214e-01 1.0000000e-01 0.0000000e+00 
3.0422947e-01 0.0000000e+00 0.0000000e+00 
4.6008557e-01 1.0000000e-01 0.0000000e+00 
4.6697357e-01 0.0000000e+00 0.0000000e+00 
6.2771249e-01 1.0000000e-01 0.0000000e+00 
6.3798475e-01 0.0000000e+00 0.0000000e+00 
8.0424988e-01 1.0000000e-01 0.0000000e+00 
8.1830680e-01 0.0000000e+00 0.0000000e+00 
9.9085975e-01 1.0000000e-01 0.0000000e+00 
1.0091403e+00 0.0000000e+00 0.0000000e+00 
1.1816932e+00 1.0000000e-01 0.0000000e+00 
1.1957501e+00 0.0000000e+00 0.0000000e+00 
1.3620152e+00 1.0000000e-01 0.0000000e+00 
1.3722875e+00 0.0000000e+00 0.0000000e+00 
1.5330265e+00 1.0000000e-01 0.0000000e+00 
1.5399145e+00 0.0000000e+00 0.0000000e+00 
1.6957705e+00 1.0000000e-01 0.0000000e+00 
1.6996379e+00 0.0000000e+00 0.0000000e+00 
1.8511606e+00 1.0000000e-01 0.0000000e+00 
1.8523363e+00 0.0000000e+00 0.0000000e+00 
2.0000000e+00 1.0000000e-01 0.0000000e+00 
2.0000000e+00 0.0000000e+00 0.0000000e+00 

CELLS 24 96
3 25 24 23
3 0 1 2
3 1 3 2
3 2 3 4
3 24 22 23
3 23 22 21
3 3 5 4
3 4 5 6
3 22 20 21
3 21 20 19
3 5 7 6
3 6 7 8
3 20 18 19
3 19 18 17
3 7 9 8
3 8 9 10
3 18 16 17
3 17 16 15
3 9 11 10
3 10 11 12
3 16 14 15
3 15 14 13
3 11 13 12
3 12 13 14

CELL_TYPES 24
5
5
5
5
5
5
5
5
5
5
5
5
5
5
5
5
5
5
5
5
5
5
5
5
POINT_DATA 26
FIELD FieldData 3
DISPLACEMENT 3 26  float
0.0000000e+00 0.0000000e+00 0.0000000e+00 
0.0000000e+00 0.0000000e+00 0.0000000e+00 
2.2072904e-03 -3.7508651e-03 0.0000000e+00 
-2.5135134e-03 -3.7060173e-03 0.0000000e+00 
3.9509288e-03 -1.4697628e-02 0.0000000e+00 
-5.2709160e-03 -1.4648060e-02 0.0000000e+00 
4.9351980e-03 -3.3171427e-02 0.0000000e+00 
-8.5966950e-03 -3.3214949e-02 0.0000000e+00 
4.8122318e-03 -5.9499718e-02 0.0000000e+00 
-1.2805775e-02 -5.9792165e-02 0.0000000e+00 
3.2434962e-03 -9.3986832e-02 0.0000000e+00 
-1.8190887e-02 -9.4742738e-02 0.0000000e+00 
-8.0478902e-05 -1.3688105e-01 0.0000000e+00 
-2.4994977e-02 -1.3836427e-01 0.0000000e+00 
-5.1212767e-03 -1.8646170e-01 0.0000000e+00 
-3.2681111e-02 -1.8657695e-01 0.0000000e+00 
-1.1352256e-02 -2.3758690e-01 0.0000000e+00 
-4.0861320e-02 -2.3629588e-01 0.0000000e+00 
-1.8422777e-02 -2.8905579e-01 0.0000000e+00 
-4.9283948e-02 -2.8642401e-01 0.0000000e+00 
-2.6014498e-02 -3.3999547e-01 0.0000000e+00 
-5.7726197e-02 -3.3615735e-01 0.0000000e+00 
-3.3860110e-02 -3.8978577e-01 0.0000000e+00 
-6.6002160e-02 -3.8491425e-01 0.0000000e+00 
-4.1747693e-02 -4.3799496e-01 0.0000000e+00 
-7.3997438e-02 -4.3264291e-01 0.0000000e+00 
REACTION 3 26  float
0.0000000e+00 0.0000000e+00 0.0000000e+00 
0.0000000e+00 0.0000000e+00 0.0000000e+00 
0.0000000e+00 0.0000000e+00 0.0000000e+00 
0.0000000e+00 0.0000000e+00 0.0000000e+00 
0.0000000e+00 0.0000000e+00 0.0000000e+00 
0.0000000e+00 0.0000000e+00 0.0000000e+00 
0.0000000e+00 0.0000000e+00 0.0000000e+00 
0.0000000e+00 0.0000000e+00 0.0000000e+00 
0.0000000e+00 0.0000000e+00 0.0000000e+00 
0.0000000e+00 0.0000000e+00 0.0000000e+00 
0.0000000e+00 0.0000000e+00 0.0000000e+00 
0.0000000e+00 0.0000000e+00 0.0000000e+00 
0.0000000e+00 0.0000000e+00 0.0000000e+00 
0.0000000e+00 0.0000000e+00 0.0000000e+00 
0.0000000e+00 0.0000000e+00 0.0000000e+00 
0.0000000e+00 0.0000000e+00 0.0000000e+00 
0.0000000e+00 0.0000000e+00 0.0000000e+00 
0.0000000e+00 0.0000000e+00 0.0000000e+00 
0.0000000e+00 0.0000000e+00 0.0000000e+00 
0.0000000e+00 0.0000000e+00 0.0000000e+00 
0.0000000e+00 0.0000000e+00 0.0000000e+00 
0.0000000e+00 0.0000000e+00 0.0000000e+00 
0.0000000e+00 0.0000000e+00 0.0000000e+00 
0.0000000e+00 0.0000000e+00 0.0000000e+00 
0.0000000e+00 0.0000000e+00 0.0000000e+00 
0.0000000e+00 0.0000000e+00 0.0000000e+00 
VON_MISES_STRESS 1 26  float
4.6943606e+09
4.5684275e+09
4.4903921e+09
4.2883110e+09
4.1456202e+09
3.9386578e+09
3.7946708e+09
3.5668147e+09
3.4191800e+09
3.1684890e+09
3.0142190e+09
2.7379855e+09
2.5897277e+09
2.2859597e+09
2.1383538e+09
1.8198874e+09
1.6983238e+09
1.3939704e+09
1.2853798e+09
9.9746003e+08
9.0163386e+08
6.3409888e+08
5.5230835e+08
3.3365987e+08
3.1204688e+08
1.5383539e+08
CELL_DATA 24
FIELD FieldData 0
