# vtk DataFile Version 4.0
vtk output
ASCII
DATASET UNSTRUCTURED_GRID
POINTS 26 float
0.0000000e+00 1.0000000e-01 0.0000000e+00 
0.0000000e+00 0.0000000e+00 0.0000000e+00 
1.4766368e-01 1.0000000e-01 0.0000000e+00 
1.4883940e-01 0.0000000e+00 0.0000000e+00 
3.0036214e-01 1.0000000e-01 0.0000000e+00 
3.0422947e-01 0.0000000e+00 0.0000000e+00 
4.6008557e-01 1.0000000e-01 0.0000000e+00 
4.6697357e-01 0.0000000e+00 0.0000000e+00 
6.2771249e-01 1.0000000e-01 0.0000000e+00 
6.3798475e-01 0.0000000e+00 0.0000000e+00 
8.0424988e-01 1.0000000e-01 0.0000000e+00 
8.1830680e-01 0.0000000e+00 0.0000000e+00 
9.9085975e-01 1.0000000e-01 0.0000000e+00 
1.0091403e+00 0.0000000e+00 0.0000000e+00 
1.1816932e+00 1.0000000e-01 0.0000000e+00 
1.1957501e+00 0.0000000e+00 0.0000000e+00 
1.3620152e+00 1.0000000e-01 0.0000000e+00 
1.3722875e+00 0.0000000e+00 0.0000000e+00 
1.5330265e+00 1.0000000e-01 0.0000000e+00 
1.5399145e+00 0.0000000e+00 0.0000000e+00 
1.6957705e+00 1.0000000e-01 0.0000000e+00 
1.6996379e+00 0.0000000e+00 0.0000000e+00 
1.8511606e+00 1.0000000e-01 0.0000000e+00 
1.8523363e+00 0.0000000e+00 0.0000000e+00 
2.0000000e+00 1.0000000e-01 0.0000000e+00 
2.0000000e+00 0.0000000e+00 0.0000000e+00 

CELLS 24 96
3 25 24 23
3 0 1 2
3 1 3 2
3 2 3 4
3 24 22 23
3 23 22 21
3 3 5 4
3 4 5 6
3 22 20 21
3 21 20 19
3 5 7 6
3 6 7 8
3 20 18 19
3 19 18 17
3 7 9 8
3 8 9 10
3 18 16 17
3 17 16 15
3 9 11 10
3 10 11 12
3 16 14 15
3 15 14 13
3 11 13 12
3 12 13 14

CELL_TYPES 24
5
5
5
5
5
5
5
5
5
5
5
5
5
5
5
5
5
5
5
5
5
5
5
5
POINT_DATA 26
FIELD FieldData 3
DISPLACEMENT 3 26  float
0.0000000e+00 0.0000000e+00 0.0000000e+00 
0.0000000e+00 0.0000000e+00 0.0000000e+00 
7.3058177e-03 -1.5514689e-02 0.0000000e+00 
-1.1429073e-02 -1.3706626e-02 0.0000000e+00 
8.7497281e-03 -5.9809856e-02 0.0000000e+00 
-2.6932076e-02 -5.4523367e-02 0.0000000e+00 
-3.0482066e-04 -1.3173951e-01 0.0000000e+00 
-5.0933506e-02 -1.2183604e-01 0.0000000e+00 
-2.3508307e-02 -2.2942299e-01 0.0000000e+00 
-8.7150872e-02 -2.1458258e-01 0.0000000e+00 
-6.3557066e-02 -3.5087967e-01 0.0000000e+00 
-1.3848253e-01 -3.3148035e-01 0.0000000e+00 
-1.2224431e-01 -4.9426711e-01 0.0000000e+00 
-2.0696028e-01 -4.7125113e-01 0.0000000e+00 
-1.9744830e-01 -6.5227866e-01 0.0000000e+00 
-2.8660023e-01 -6.1980915e-01 0.0000000e+00 
-2.8049633e-01 -8.0871409e-01 0.0000000e+00 
-3.7192449e-01 -7.6804739e-01 0.0000000e+00 
-3.6797205e-01 -9.6136063e-01 0.0000000e+00 
-4.6024472e-01 -9.1386312e-01 0.0000000e+00 
-4.5727620e-01 -1.1091231e+00 0.0000000e+00 
-5.4948413e-01 -1.0561205e+00 0.0000000e+00 
-5.4650587e-01 -1.2515459e+00 0.0000000e+00 
-6.3808602e-01 -1.1942621e+00 0.0000000e+00 
-6.3428396e-01 -1.3885229e+00 0.0000000e+00 
-7.2565186e-01 -1.3291767e+00 0.0000000e+00 
REACTION 3 26  float
0.0000000e+00 0.0000000e+00 0.0000000e+00 
0.0000000e+00 0.0000000e+00 0.0000000e+00 
0.0000000e+00 0.0000000e+00 0.0000000e+00 
0.0000000e+00 0.0000000e+00 0.0000000e+00 
0.0000000e+00 0.0000000e+00 0.0000000e+00 
0.0000000e+00 0.0000000e+00 0.0000000e+00 
0.0000000e+00 0.0000000e+00 0.0000000e+00 
0.0000000e+00 0.0000000e+00 0.0000000e+00 
0.0000000e+00 0.0000000e+00 0.0000000e+00 
0.0000000e+00 0.0000000e+00 0.0000000e+00 
0.0000000e+00 0.0000000e+00 0.0000000e+00 
0.0000000e+00 0.0000000e+00 0.0000000e+00 
0.0000000e+00 0.0000000e+00 0.0000000e+00 
0.0000000e+00 0.0000000e+00 0.0000000e+00 
0.0000000e+00 0.0000000e+00 0.0000000e+00 
0.0000000e+00 0.0000000e+00 0.0000000e+00 
0.0000000e+00 0.0000000e+00 0.0000000e+00 
0.0000000e+00 0.0000000e+00 0.0000000e+00 
0.0000000e+00 0.0000000e+00 0.0000000e+00 
0.0000000e+00 0.0000000e+00 0.0000000e+00 
0.0000000e+00 0.0000000e+00 0.0000000e+00 
0.0000000e+00 0.0000000e+00 0.0000000e+00 
0.0000000e+00 0.0000000e+00 0.0000000e+00 
0.0000000e+00 0.0000000e+00 0.0000000e+00 
0.0000000e+00 0.0000000e+00 0.0000000e+00 
0.0000000e+00 0.0000000e+00 0.0000000e+00 
VON_MISES_STRESS 1 26  float
1.8467803e+10
1.8273274e+10
1.7733736e+10
1.6802404e+10
1.5787094e+10
1.4672519e+10
1.3842449e+10
1.2602967e+10
1.1933223e+10
1.0616246e+10
1.0078888e+10
8.7190149e+09
8.3375544e+09
6.9755832e+09
6.7067602e+09
5.3703813e+09
5.2635177e+09
4.0390825e+09
4.0242954e+09
2.8932165e+09
2.9475625e+09
1.8902852e+09
1.9943913e+09
1.0114894e+09
1.0926383e+09
7.2841384e+07
CELL_DATA 24
FIELD FieldData 0
