# vtk DataFile Version 4.0
vtk output
ASCII
DATASET UNSTRUCTURED_GRID
POINTS 26 float
0.0000000e+00 1.0000000e-01 0.0000000e+00 
0.0000000e+00 0.0000000e+00 0.0000000e+00 
1.4766368e-01 1.0000000e-01 0.0000000e+00 
1.4883940e-01 0.0000000e+00 0.0000000e+00 
3.0036214e-01 1.0000000e-01 0.0000000e+00 
3.0422947e-01 0.0000000e+00 0.0000000e+00 
4.6008557e-01 1.0000000e-01 0.0000000e+00 
4.6697357e-01 0.0000000e+00 0.0000000e+00 
6.2771249e-01 1.0000000e-01 0.0000000e+00 
6.3798475e-01 0.0000000e+00 0.0000000e+00 
8.0424988e-01 1.0000000e-01 0.0000000e+00 
8.1830680e-01 0.0000000e+00 0.0000000e+00 
9.9085975e-01 1.0000000e-01 0.0000000e+00 
1.0091403e+00 0.0000000e+00 0.0000000e+00 
1.1816932e+00 1.0000000e-01 0.0000000e+00 
1.1957501e+00 0.0000000e+00 0.0000000e+00 
1.3620152e+00 1.0000000e-01 0.0000000e+00 
1.3722875e+00 0.0000000e+00 0.0000000e+00 
1.5330265e+00 1.0000000e-01 0.0000000e+00 
1.5399145e+00 0.0000000e+00 0.0000000e+00 
1.6957705e+00 1.0000000e-01 0.0000000e+00 
1.6996379e+00 0.0000000e+00 0.0000000e+00 
1.8511606e+00 1.0000000e-01 0.0000000e+00 
1.8523363e+00 0.0000000e+00 0.0000000e+00 
2.0000000e+00 1.0000000e-01 0.0000000e+00 
2.0000000e+00 0.0000000e+00 0.0000000e+00 

CELLS 24 96
3 25 24 23
3 0 1 2
3 1 3 2
3 2 3 4
3 24 22 23
3 23 22 21
3 3 5 4
3 4 5 6
3 22 20 21
3 21 20 19
3 5 7 6
3 6 7 8
3 20 18 19
3 19 18 17
3 7 9 8
3 8 9 10
3 18 16 17
3 17 16 15
3 9 11 10
3 10 11 12
3 16 14 15
3 15 14 13
3 11 13 12
3 12 13 14

CELL_TYPES 24
5
5
5
5
5
5
5
5
5
5
5
5
5
5
5
5
5
5
5
5
5
5
5
5
POINT_DATA 26
FIELD FieldData 3
DISPLACEMENT 3 26  float
0.0000000e+00 0.0000000e+00 0.0000000e+00 
0.0000000e+00 0.0000000e+00 0.0000000e+00 
1.2936794e-03 -2.1413227e-03 0.0000000e+00 
-1.4092157e-03 -2.1504930e-03 0.0000000e+00 
2.3997305e-03 -8.3847214e-03 0.0000000e+00 
-2.8798019e-03 -8.4670223e-03 0.0000000e+00 
3.2342579e-03 -1.8930323e-02 0.0000000e+00 
-4.5154938e-03 -1.9184735e-02 0.0000000e+00 
3.6770960e-03 -3.3989869e-02 0.0000000e+00 
-6.4145918e-03 -3.4540832e-02 0.0000000e+00 
3.6083972e-03 -5.3766478e-02 0.0000000e+00 
-8.6663505e-03 -5.4762445e-02 0.0000000e+00 
2.9152462e-03 -7.8433104e-02 0.0000000e+00 
-1.1340611e-02 -8.0038548e-02 0.0000000e+00 
1.6086643e-03 -1.0701948e-01 0.0000000e+00 
-1.4215256e-02 -1.0801241e-01 0.0000000e+00 
-1.8164130e-04 -1.3656947e-01 0.0000000e+00 
-1.7181326e-02 -1.3689601e-01 0.0000000e+00 
-2.3298410e-03 -1.6637760e-01 0.0000000e+00 
-2.0162210e-02 -1.6604047e-01 0.0000000e+00 
-4.7195610e-03 -1.9592272e-01 0.0000000e+00 
-2.3090333e-02 -1.9496503e-01 0.0000000e+00 
-7.2520063e-03 -2.2482878e-01 0.0000000e+00 
-2.5909694e-02 -2.2331849e-01 0.0000000e+00 
-9.8487074e-03 -2.5283045e-01 0.0000000e+00 
-2.8580472e-02 -2.5105476e-01 0.0000000e+00 
REACTION 3 26  float
0.0000000e+00 0.0000000e+00 0.0000000e+00 
0.0000000e+00 0.0000000e+00 0.0000000e+00 
0.0000000e+00 0.0000000e+00 0.0000000e+00 
0.0000000e+00 0.0000000e+00 0.0000000e+00 
0.0000000e+00 0.0000000e+00 0.0000000e+00 
0.0000000e+00 0.0000000e+00 0.0000000e+00 
0.0000000e+00 0.0000000e+00 0.0000000e+00 
0.0000000e+00 0.0000000e+00 0.0000000e+00 
0.0000000e+00 0.0000000e+00 0.0000000e+00 
0.0000000e+00 0.0000000e+00 0.0000000e+00 
0.0000000e+00 0.0000000e+00 0.0000000e+00 
0.0000000e+00 0.0000000e+00 0.0000000e+00 
0.0000000e+00 0.0000000e+00 0.0000000e+00 
0.0000000e+00 0.0000000e+00 0.0000000e+00 
0.0000000e+00 0.0000000e+00 0.0000000e+00 
0.0000000e+00 0.0000000e+00 0.0000000e+00 
0.0000000e+00 0.0000000e+00 0.0000000e+00 
0.0000000e+00 0.0000000e+00 0.0000000e+00 
0.0000000e+00 0.0000000e+00 0.0000000e+00 
0.0000000e+00 0.0000000e+00 0.0000000e+00 
0.0000000e+00 0.0000000e+00 0.0000000e+00 
0.0000000e+00 0.0000000e+00 0.0000000e+00 
0.0000000e+00 0.0000000e+00 0.0000000e+00 
0.0000000e+00 0.0000000e+00 0.0000000e+00 
0.0000000e+00 0.0000000e+00 0.0000000e+00 
0.0000000e+00 0.0000000e+00 0.0000000e+00 
VON_MISES_STRESS 1 26  float
2.6963318e+09
2.6126011e+09
2.5713457e+09
2.4508367e+09
2.3759460e+09
2.2556470e+09
2.1775316e+09
2.0470746e+09
1.9645012e+09
1.8223747e+09
1.7337361e+09
1.5779423e+09
1.4907077e+09
1.3194051e+09
1.2309495e+09
1.0515229e+09
9.7688454e+08
8.0573453e+08
7.3776922e+08
5.7639763e+08
5.1538326e+08
3.6656333e+08
3.1410694e+08
1.9479698e+08
1.7992216e+08
9.8329160e+07
CELL_DATA 24
FIELD FieldData 0
