# vtk DataFile Version 4.0
vtk output
ASCII
DATASET UNSTRUCTURED_GRID
POINTS 26 float
0.0000000e+00 1.0000000e-01 0.0000000e+00 
0.0000000e+00 0.0000000e+00 0.0000000e+00 
1.4766368e-01 1.0000000e-01 0.0000000e+00 
1.4883940e-01 0.0000000e+00 0.0000000e+00 
3.0036214e-01 1.0000000e-01 0.0000000e+00 
3.0422947e-01 0.0000000e+00 0.0000000e+00 
4.6008557e-01 1.0000000e-01 0.0000000e+00 
4.6697357e-01 0.0000000e+00 0.0000000e+00 
6.2771249e-01 1.0000000e-01 0.0000000e+00 
6.3798475e-01 0.0000000e+00 0.0000000e+00 
8.0424988e-01 1.0000000e-01 0.0000000e+00 
8.1830680e-01 0.0000000e+00 0.0000000e+00 
9.9085975e-01 1.0000000e-01 0.0000000e+00 
1.0091403e+00 0.0000000e+00 0.0000000e+00 
1.1816932e+00 1.0000000e-01 0.0000000e+00 
1.1957501e+00 0.0000000e+00 0.0000000e+00 
1.3620152e+00 1.0000000e-01 0.0000000e+00 
1.3722875e+00 0.0000000e+00 0.0000000e+00 
1.5330265e+00 1.0000000e-01 0.0000000e+00 
1.5399145e+00 0.0000000e+00 0.0000000e+00 
1.6957705e+00 1.0000000e-01 0.0000000e+00 
1.6996379e+00 0.0000000e+00 0.0000000e+00 
1.8511606e+00 1.0000000e-01 0.0000000e+00 
1.8523363e+00 0.0000000e+00 0.0000000e+00 
2.0000000e+00 1.0000000e-01 0.0000000e+00 
2.0000000e+00 0.0000000e+00 0.0000000e+00 

CELLS 24 96
3 25 24 23
3 0 1 2
3 1 3 2
3 2 3 4
3 24 22 23
3 23 22 21
3 3 5 4
3 4 5 6
3 22 20 21
3 21 20 19
3 5 7 6
3 6 7 8
3 20 18 19
3 19 18 17
3 7 9 8
3 8 9 10
3 18 16 17
3 17 16 15
3 9 11 10
3 10 11 12
3 16 14 15
3 15 14 13
3 11 13 12
3 12 13 14

CELL_TYPES 24
5
5
5
5
5
5
5
5
5
5
5
5
5
5
5
5
5
5
5
5
5
5
5
5
POINT_DATA 26
FIELD FieldData 3
DISPLACEMENT 3 26  float
0.0000000e+00 0.0000000e+00 0.0000000e+00 
0.0000000e+00 0.0000000e+00 0.0000000e+00 
7.4384157e-03 -1.5939727e-02 0.0000000e+00 
-1.1769941e-02 -1.4031062e-02 0.0000000e+00 
8.7218909e-03 -6.1371014e-02 0.0000000e+00 
-2.7799617e-02 -5.5788893e-02 0.0000000e+00 
-9.8165649e-04 -1.3497478e-01 0.0000000e+00 
-5.2696425e-02 -1.2452988e-01 0.0000000e+00 
-2.5415942e-02 -2.3467520e-01 0.0000000e+00 
-9.0291083e-02 -2.1904561e-01 0.0000000e+00 
-6.7298815e-02 -3.5832301e-01 0.0000000e+00 
-1.4353256e-01 -3.3791527e-01 0.0000000e+00 
-1.2839906e-01 -5.0395042e-01 0.0000000e+00 
-2.1445841e-01 -4.7975037e-01 0.0000000e+00 
-2.0644337e-01 -6.6410035e-01 0.0000000e+00 
-2.9682547e-01 -6.3023072e-01 0.0000000e+00 
-2.9241827e-01 -8.2239425e-01 0.0000000e+00 
-3.8495517e-01 -7.8017128e-01 0.0000000e+00 
-3.8282266e-01 -9.7667086e-01 0.0000000e+00 
-4.7609285e-01 -9.2750353e-01 0.0000000e+00 
-4.7501361e-01 -1.1258904e+00 0.0000000e+00 
-5.6812590e-01 -1.0711323e+00 0.0000000e+00 
-5.6706893e-01 -1.2696462e+00 0.0000000e+00 
-6.5948099e-01 -1.2105386e+00 0.0000000e+00 
-6.5760499e-01 -1.4078733e+00 0.0000000e+00 
-7.4978536e-01 -1.3466538e+00 0.0000000e+00 
REACTION 3 26  float
0.0000000e+00 0.0000000e+00 0.0000000e+00 
0.0000000e+00 0.0000000e+00 0.0000000e+00 
0.0000000e+00 0.0000000e+00 0.0000000e+00 
0.0000000e+00 0.0000000e+00 0.0000000e+00 
0.0000000e+00 0.0000000e+00 0.0000000e+00 
0.0000000e+00 0.0000000e+00 0.0000000e+00 
0.0000000e+00 0.0000000e+00 0.0000000e+00 
0.0000000e+00 0.0000000e+00 0.0000000e+00 
0.0000000e+00 0.0000000e+00 0.0000000e+00 
0.0000000e+00 0.0000000e+00 0.0000000e+00 
0.0000000e+00 0.0000000e+00 0.0000000e+00 
0.0000000e+00 0.0000000e+00 0.0000000e+00 
0.0000000e+00 0.0000000e+00 0.0000000e+00 
0.0000000e+00 0.0000000e+00 0.0000000e+00 
0.0000000e+00 0.0000000e+00 0.0000000e+00 
0.0000000e+00 0.0000000e+00 0.0000000e+00 
0.0000000e+00 0.0000000e+00 0.0000000e+00 
0.0000000e+00 0.0000000e+00 0.0000000e+00 
0.0000000e+00 0.0000000e+00 0.0000000e+00 
0.0000000e+00 0.0000000e+00 0.0000000e+00 
0.0000000e+00 0.0000000e+00 0.0000000e+00 
0.0000000e+00 0.0000000e+00 0.0000000e+00 
0.0000000e+00 0.0000000e+00 0.0000000e+00 
0.0000000e+00 0.0000000e+00 0.0000000e+00 
0.0000000e+00 0.0000000e+00 0.0000000e+00 
0.0000000e+00 0.0000000e+00 0.0000000e+00 
VON_MISES_STRESS 1 26  float
1.8937928e+10
1.8740488e+10
1.8177171e+10
1.7204648e+10
1.6145089e+10
1.4978879e+10
1.4119605e+10
1.2826341e+10
1.2140072e+10
1.0771273e+10
1.0227693e+10
8.8206070e+09
8.4419062e+09
7.0397681e+09
6.7804892e+09
5.4097505e+09
5.3178982e+09
4.0652237e+09
4.0686735e+09
2.9138816e+09
2.9884086e+09
1.9111284e+09
2.0364582e+09
1.0430846e+09
1.1390015e+09
1.0278146e+08
CELL_DATA 24
FIELD FieldData 0
