# vtk DataFile Version 4.0
vtk output
ASCII
DATASET UNSTRUCTURED_GRID
POINTS 26 float
0.0000000e+00 1.0000000e-01 0.0000000e+00 
0.0000000e+00 0.0000000e+00 0.0000000e+00 
1.4766368e-01 1.0000000e-01 0.0000000e+00 
1.4883940e-01 0.0000000e+00 0.0000000e+00 
3.0036214e-01 1.0000000e-01 0.0000000e+00 
3.0422947e-01 0.0000000e+00 0.0000000e+00 
4.6008557e-01 1.0000000e-01 0.0000000e+00 
4.6697357e-01 0.0000000e+00 0.0000000e+00 
6.2771249e-01 1.0000000e-01 0.0000000e+00 
6.3798475e-01 0.0000000e+00 0.0000000e+00 
8.0424988e-01 1.0000000e-01 0.0000000e+00 
8.1830680e-01 0.0000000e+00 0.0000000e+00 
9.9085975e-01 1.0000000e-01 0.0000000e+00 
1.0091403e+00 0.0000000e+00 0.0000000e+00 
1.1816932e+00 1.0000000e-01 0.0000000e+00 
1.1957501e+00 0.0000000e+00 0.0000000e+00 
1.3620152e+00 1.0000000e-01 0.0000000e+00 
1.3722875e+00 0.0000000e+00 0.0000000e+00 
1.5330265e+00 1.0000000e-01 0.0000000e+00 
1.5399145e+00 0.0000000e+00 0.0000000e+00 
1.6957705e+00 1.0000000e-01 0.0000000e+00 
1.6996379e+00 0.0000000e+00 0.0000000e+00 
1.8511606e+00 1.0000000e-01 0.0000000e+00 
1.8523363e+00 0.0000000e+00 0.0000000e+00 
2.0000000e+00 1.0000000e-01 0.0000000e+00 
2.0000000e+00 0.0000000e+00 0.0000000e+00 

CELLS 24 96
3 25 24 23
3 0 1 2
3 1 3 2
3 2 3 4
3 24 22 23
3 23 22 21
3 3 5 4
3 4 5 6
3 22 20 21
3 21 20 19
3 5 7 6
3 6 7 8
3 20 18 19
3 19 18 17
3 7 9 8
3 8 9 10
3 18 16 17
3 17 16 15
3 9 11 10
3 10 11 12
3 16 14 15
3 15 14 13
3 11 13 12
3 12 13 14

CELL_TYPES 24
5
5
5
5
5
5
5
5
5
5
5
5
5
5
5
5
5
5
5
5
5
5
5
5
POINT_DATA 26
FIELD FieldData 3
DISPLACEMENT 3 26  float
0.0000000e+00 0.0000000e+00 0.0000000e+00 
0.0000000e+00 0.0000000e+00 0.0000000e+00 
4.4487617e-03 -8.1674121e-03 0.0000000e+00 
-5.7130666e-03 -7.7221082e-03 0.0000000e+00 
7.0796250e-03 -3.1950239e-02 0.0000000e+00 
-1.2686616e-02 -3.0734126e-02 0.0000000e+00 
6.4196736e-03 -7.1765386e-02 0.0000000e+00 
-2.2394072e-02 -6.9581740e-02 0.0000000e+00 
1.0129347e-03 -1.2784615e-01 0.0000000e+00 
-3.6242213e-02 -1.2471555e-01 0.0000000e+00 
-1.0465083e-02 -2.0031349e-01 0.0000000e+00 
-5.5508588e-02 -1.9648069e-01 0.0000000e+00 
-2.9135676e-02 -2.8916371e-01 0.0000000e+00 
-8.1246972e-02 -2.8508806e-01 0.0000000e+00 
-5.4669484e-02 -3.9048547e-01 0.0000000e+00 
-1.1144918e-01 -3.8204286e-01 0.0000000e+00 
-8.4262140e-02 -4.9370664e-01 0.0000000e+00 
-1.4423177e-01 -4.8115194e-01 0.0000000e+00 
-1.1650167e-01 -5.9663194e-01 0.0000000e+00 
-1.7848980e-01 -5.8043051e-01 0.0000000e+00 
-1.5017362e-01 -6.9779307e-01 0.0000000e+00 
-2.1327421e-01 -6.7851800e-01 0.0000000e+00 
-1.8429711e-01 -7.9623264e-01 0.0000000e+00 
-2.4780914e-01 -7.7449369e-01 0.0000000e+00 
-2.1811110e-01 -8.9133835e-01 0.0000000e+00 
-2.8170803e-01 -8.6849475e-01 0.0000000e+00 
REACTION 3 26  float
0.0000000e+00 0.0000000e+00 0.0000000e+00 
0.0000000e+00 0.0000000e+00 0.0000000e+00 
0.0000000e+00 0.0000000e+00 0.0000000e+00 
0.0000000e+00 0.0000000e+00 0.0000000e+00 
0.0000000e+00 0.0000000e+00 0.0000000e+00 
0.0000000e+00 0.0000000e+00 0.0000000e+00 
0.0000000e+00 0.0000000e+00 0.0000000e+00 
0.0000000e+00 0.0000000e+00 0.0000000e+00 
0.0000000e+00 0.0000000e+00 0.0000000e+00 
0.0000000e+00 0.0000000e+00 0.0000000e+00 
0.0000000e+00 0.0000000e+00 0.0000000e+00 
0.0000000e+00 0.0000000e+00 0.0000000e+00 
0.0000000e+00 0.0000000e+00 0.0000000e+00 
0.0000000e+00 0.0000000e+00 0.0000000e+00 
0.0000000e+00 0.0000000e+00 0.0000000e+00 
0.0000000e+00 0.0000000e+00 0.0000000e+00 
0.0000000e+00 0.0000000e+00 0.0000000e+00 
0.0000000e+00 0.0000000e+00 0.0000000e+00 
0.0000000e+00 0.0000000e+00 0.0000000e+00 
0.0000000e+00 0.0000000e+00 0.0000000e+00 
0.0000000e+00 0.0000000e+00 0.0000000e+00 
0.0000000e+00 0.0000000e+00 0.0000000e+00 
0.0000000e+00 0.0000000e+00 0.0000000e+00 
0.0000000e+00 0.0000000e+00 0.0000000e+00 
0.0000000e+00 0.0000000e+00 0.0000000e+00 
0.0000000e+00 0.0000000e+00 0.0000000e+00 
VON_MISES_STRESS 1 26  float
1.0040298e+10
9.8635950e+09
9.6547543e+09
9.2367575e+09
8.8477573e+09
8.3868303e+09
8.0247931e+09
7.5038403e+09
7.1626010e+09
6.5847644e+09
6.2568253e+09
5.6235412e+09
5.3331169e+09
4.6495677e+09
4.3811671e+09
3.6733371e+09
3.4739727e+09
2.8016824e+09
2.6393779e+09
2.0035323e+09
1.8732567e+09
1.2749034e+09
1.1721948e+09
6.5635808e+08
6.3946304e+08
2.0699781e+08
CELL_DATA 24
FIELD FieldData 0
