# vtk DataFile Version 4.0
vtk output
ASCII
DATASET UNSTRUCTURED_GRID
POINTS 26 float
0.0000000e+00 1.0000000e-01 0.0000000e+00 
0.0000000e+00 0.0000000e+00 0.0000000e+00 
1.4766368e-01 1.0000000e-01 0.0000000e+00 
1.4883940e-01 0.0000000e+00 0.0000000e+00 
3.0036214e-01 1.0000000e-01 0.0000000e+00 
3.0422947e-01 0.0000000e+00 0.0000000e+00 
4.6008557e-01 1.0000000e-01 0.0000000e+00 
4.6697357e-01 0.0000000e+00 0.0000000e+00 
6.2771249e-01 1.0000000e-01 0.0000000e+00 
6.3798475e-01 0.0000000e+00 0.0000000e+00 
8.0424988e-01 1.0000000e-01 0.0000000e+00 
8.1830680e-01 0.0000000e+00 0.0000000e+00 
9.9085975e-01 1.0000000e-01 0.0000000e+00 
1.0091403e+00 0.0000000e+00 0.0000000e+00 
1.1816932e+00 1.0000000e-01 0.0000000e+00 
1.1957501e+00 0.0000000e+00 0.0000000e+00 
1.3620152e+00 1.0000000e-01 0.0000000e+00 
1.3722875e+00 0.0000000e+00 0.0000000e+00 
1.5330265e+00 1.0000000e-01 0.0000000e+00 
1.5399145e+00 0.0000000e+00 0.0000000e+00 
1.6957705e+00 1.0000000e-01 0.0000000e+00 
1.6996379e+00 0.0000000e+00 0.0000000e+00 
1.8511606e+00 1.0000000e-01 0.0000000e+00 
1.8523363e+00 0.0000000e+00 0.0000000e+00 
2.0000000e+00 1.0000000e-01 0.0000000e+00 
2.0000000e+00 0.0000000e+00 0.0000000e+00 

CELLS 24 96
3 25 24 23
3 0 1 2
3 1 3 2
3 2 3 4
3 24 22 23
3 23 22 21
3 3 5 4
3 4 5 6
3 22 20 21
3 21 20 19
3 5 7 6
3 6 7 8
3 20 18 19
3 19 18 17
3 7 9 8
3 8 9 10
3 18 16 17
3 17 16 15
3 9 11 10
3 10 11 12
3 16 14 15
3 15 14 13
3 11 13 12
3 12 13 14

CELL_TYPES 24
5
5
5
5
5
5
5
5
5
5
5
5
5
5
5
5
5
5
5
5
5
5
5
5
POINT_DATA 26
FIELD FieldData 3
DISPLACEMENT 3 26  float
0.0000000e+00 0.0000000e+00 0.0000000e+00 
0.0000000e+00 0.0000000e+00 0.0000000e+00 
5.9249485e-03 -1.1616813e-02 0.0000000e+00 
-8.3490750e-03 -1.0627432e-02 0.0000000e+00 
8.3902981e-03 -4.5213174e-02 0.0000000e+00 
-1.9158054e-02 -4.2363457e-02 0.0000000e+00 
4.5405338e-03 -1.0079473e-01 0.0000000e+00 
-3.5197902e-02 -9.5461167e-02 0.0000000e+00 
-8.1837066e-03 -1.7792203e-01 0.0000000e+00 
-5.8993027e-02 -1.6992113e-01 0.0000000e+00 
-3.1933635e-02 -2.7597484e-01 0.0000000e+00 
-9.2711061e-02 -2.6554710e-01 0.0000000e+00 
-6.8375744e-02 -3.9423186e-01 0.0000000e+00 
-1.3804124e-01 -3.8200492e-01 0.0000000e+00 
-1.1656108e-01 -5.2705157e-01 0.0000000e+00 
-1.9128092e-01 -5.0783372e-01 0.0000000e+00 
-1.7104794e-01 -6.6060823e-01 0.0000000e+00 
-2.4889775e-01 -6.3508856e-01 0.0000000e+00 
-2.2940342e-01 -7.9245025e-01 0.0000000e+00 
-3.0897558e-01 -7.6153296e-01 0.0000000e+00 
-2.8964472e-01 -9.2110729e-01 0.0000000e+00 
-3.6993942e-01 -8.8576621e-01 0.0000000e+00 
-3.5023588e-01 -1.0457376e+00 0.0000000e+00 
-4.3054542e-01 -1.0069338e+00 0.0000000e+00 
-4.1001827e-01 -1.1658856e+00 0.0000000e+00 
-4.9029410e-01 -1.1255035e+00 0.0000000e+00 
REACTION 3 26  float
0.0000000e+00 0.0000000e+00 0.0000000e+00 
0.0000000e+00 0.0000000e+00 0.0000000e+00 
0.0000000e+00 0.0000000e+00 0.0000000e+00 
0.0000000e+00 0.0000000e+00 0.0000000e+00 
0.0000000e+00 0.0000000e+00 0.0000000e+00 
0.0000000e+00 0.0000000e+00 0.0000000e+00 
0.0000000e+00 0.0000000e+00 0.0000000e+00 
0.0000000e+00 0.0000000e+00 0.0000000e+00 
0.0000000e+00 0.0000000e+00 0.0000000e+00 
0.0000000e+00 0.0000000e+00 0.0000000e+00 
0.0000000e+00 0.0000000e+00 0.0000000e+00 
0.0000000e+00 0.0000000e+00 0.0000000e+00 
0.0000000e+00 0.0000000e+00 0.0000000e+00 
0.0000000e+00 0.0000000e+00 0.0000000e+00 
0.0000000e+00 0.0000000e+00 0.0000000e+00 
0.0000000e+00 0.0000000e+00 0.0000000e+00 
0.0000000e+00 0.0000000e+00 0.0000000e+00 
0.0000000e+00 0.0000000e+00 0.0000000e+00 
0.0000000e+00 0.0000000e+00 0.0000000e+00 
0.0000000e+00 0.0000000e+00 0.0000000e+00 
0.0000000e+00 0.0000000e+00 0.0000000e+00 
0.0000000e+00 0.0000000e+00 0.0000000e+00 
0.0000000e+00 0.0000000e+00 0.0000000e+00 
0.0000000e+00 0.0000000e+00 0.0000000e+00 
0.0000000e+00 0.0000000e+00 0.0000000e+00 
0.0000000e+00 0.0000000e+00 0.0000000e+00 
VON_MISES_STRESS 1 26  float
1.4069303e+10
1.3886438e+10
1.3540982e+10
1.2921827e+10
1.2272605e+10
1.1555640e+10
1.0986237e+10
1.0174954e+10
9.6740188e+09
8.7858360e+09
8.3398943e+09
7.3879424e+09
7.0253445e+09
6.0288625e+09
5.7232481e+09
4.7137280e+09
4.5191373e+09
3.5737728e+09
3.4409992e+09
2.5540966e+09
2.4709007e+09
1.6345638e+09
1.5895834e+09
8.3262752e+08
8.4353254e+08
1.3367355e+08
CELL_DATA 24
FIELD FieldData 0
