# vtk DataFile Version 4.0
vtk output
ASCII
DATASET UNSTRUCTURED_GRID
POINTS 26 float
0.0000000e+00 1.0000000e-01 0.0000000e+00 
0.0000000e+00 0.0000000e+00 0.0000000e+00 
1.4766368e-01 1.0000000e-01 0.0000000e+00 
1.4883940e-01 0.0000000e+00 0.0000000e+00 
3.0036214e-01 1.0000000e-01 0.0000000e+00 
3.0422947e-01 0.0000000e+00 0.0000000e+00 
4.6008557e-01 1.0000000e-01 0.0000000e+00 
4.6697357e-01 0.0000000e+00 0.0000000e+00 
6.2771249e-01 1.0000000e-01 0.0000000e+00 
6.3798475e-01 0.0000000e+00 0.0000000e+00 
8.0424988e-01 1.0000000e-01 0.0000000e+00 
8.1830680e-01 0.0000000e+00 0.0000000e+00 
9.9085975e-01 1.0000000e-01 0.0000000e+00 
1.0091403e+00 0.0000000e+00 0.0000000e+00 
1.1816932e+00 1.0000000e-01 0.0000000e+00 
1.1957501e+00 0.0000000e+00 0.0000000e+00 
1.3620152e+00 1.0000000e-01 0.0000000e+00 
1.3722875e+00 0.0000000e+00 0.0000000e+00 
1.5330265e+00 1.0000000e-01 0.0000000e+00 
1.5399145e+00 0.0000000e+00 0.0000000e+00 
1.6957705e+00 1.0000000e-01 0.0000000e+00 
1.6996379e+00 0.0000000e+00 0.0000000e+00 
1.8511606e+00 1.0000000e-01 0.0000000e+00 
1.8523363e+00 0.0000000e+00 0.0000000e+00 
2.0000000e+00 1.0000000e-01 0.0000000e+00 
2.0000000e+00 0.0000000e+00 0.0000000e+00 

CELLS 24 96
3 25 24 23
3 0 1 2
3 1 3 2
3 2 3 4
3 24 22 23
3 23 22 21
3 3 5 4
3 4 5 6
3 22 20 21
3 21 20 19
3 5 7 6
3 6 7 8
3 20 18 19
3 19 18 17
3 7 9 8
3 8 9 10
3 18 16 17
3 17 16 15
3 9 11 10
3 10 11 12
3 16 14 15
3 15 14 13
3 11 13 12
3 12 13 14

CELL_TYPES 24
5
5
5
5
5
5
5
5
5
5
5
5
5
5
5
5
5
5
5
5
5
5
5
5
POINT_DATA 26
FIELD FieldData 3
DISPLACEMENT 3 26  float
0.0000000e+00 0.0000000e+00 0.0000000e+00 
0.0000000e+00 0.0000000e+00 0.0000000e+00 
5.0558569e-03 -9.5188366e-03 0.0000000e+00 
-6.7337365e-03 -8.8826735e-03 0.0000000e+00 
7.7090273e-03 -3.7177362e-02 0.0000000e+00 
-1.5163706e-02 -3.5389084e-02 0.0000000e+00 
5.9814802e-03 -8.3292335e-02 0.0000000e+00 
-2.7241088e-02 -8.0000579e-02 0.0000000e+00 
-2.0095867e-03 -1.4790295e-01 0.0000000e+00 
-4.4800259e-02 -1.4304887e-01 0.0000000e+00 
-1.7930329e-02 -2.3090287e-01 0.0000000e+00 
-6.9476396e-02 -2.2472319e-01 0.0000000e+00 
-4.3148469e-02 -3.3205572e-01 0.0000000e+00 
-1.0259408e-01 -3.2506749e-01 0.0000000e+00 
-7.7140868e-02 -4.4676095e-01 0.0000000e+00 
-1.4153092e-01 -4.3436283e-01 0.0000000e+00 
-1.1613002e-01 -5.6304830e-01 0.0000000e+00 
-1.8378769e-01 -5.4564941e-01 0.0000000e+00 
-1.5830491e-01 -6.7856389e-01 0.0000000e+00 
-2.2794089e-01 -6.5679657e-01 0.0000000e+00 
-2.0213878e-01 -7.9179144e-01 0.0000000e+00 
-2.7278680e-01 -7.6638871e-01 0.0000000e+00 
-2.4641719e-01 -9.0178293e-01 0.0000000e+00 
-3.1735313e-01 -8.7349999e-01 0.0000000e+00 
-2.9020733e-01 -1.0079610e+00 0.0000000e+00 
-3.6118972e-01 -9.7838372e-01 0.0000000e+00 
REACTION 3 26  float
0.0000000e+00 0.0000000e+00 0.0000000e+00 
0.0000000e+00 0.0000000e+00 0.0000000e+00 
0.0000000e+00 0.0000000e+00 0.0000000e+00 
0.0000000e+00 0.0000000e+00 0.0000000e+00 
0.0000000e+00 0.0000000e+00 0.0000000e+00 
0.0000000e+00 0.0000000e+00 0.0000000e+00 
0.0000000e+00 0.0000000e+00 0.0000000e+00 
0.0000000e+00 0.0000000e+00 0.0000000e+00 
0.0000000e+00 0.0000000e+00 0.0000000e+00 
0.0000000e+00 0.0000000e+00 0.0000000e+00 
0.0000000e+00 0.0000000e+00 0.0000000e+00 
0.0000000e+00 0.0000000e+00 0.0000000e+00 
0.0000000e+00 0.0000000e+00 0.0000000e+00 
0.0000000e+00 0.0000000e+00 0.0000000e+00 
0.0000000e+00 0.0000000e+00 0.0000000e+00 
0.0000000e+00 0.0000000e+00 0.0000000e+00 
0.0000000e+00 0.0000000e+00 0.0000000e+00 
0.0000000e+00 0.0000000e+00 0.0000000e+00 
0.0000000e+00 0.0000000e+00 0.0000000e+00 
0.0000000e+00 0.0000000e+00 0.0000000e+00 
0.0000000e+00 0.0000000e+00 0.0000000e+00 
0.0000000e+00 0.0000000e+00 0.0000000e+00 
0.0000000e+00 0.0000000e+00 0.0000000e+00 
0.0000000e+00 0.0000000e+00 0.0000000e+00 
0.0000000e+00 0.0000000e+00 0.0000000e+00 
0.0000000e+00 0.0000000e+00 0.0000000e+00 
VON_MISES_STRESS 1 26  float
1.1634306e+10
1.1453771e+10
1.1195211e+10
1.0704412e+10
1.0220750e+10
9.6681155e+09
9.2283259e+09
8.6021304e+09
8.1984205e+09
7.5060992e+09
7.1290747e+09
6.3756943e+09
6.0518938e+09
5.2473221e+09
4.9573652e+09
4.1304776e+09
3.9253212e+09
3.1436718e+09
2.9848036e+09
2.2473408e+09
2.1272278e+09
1.4320911e+09
1.3436675e+09
7.3359309e+08
7.2527386e+08
1.9075429e+08
CELL_DATA 24
FIELD FieldData 0
