# vtk DataFile Version 4.0
vtk output
ASCII
DATASET UNSTRUCTURED_GRID
POINTS 26 float
0.0000000e+00 1.0000000e-01 0.0000000e+00 
0.0000000e+00 0.0000000e+00 0.0000000e+00 
1.4766368e-01 1.0000000e-01 0.0000000e+00 
1.4883940e-01 0.0000000e+00 0.0000000e+00 
3.0036214e-01 1.0000000e-01 0.0000000e+00 
3.0422947e-01 0.0000000e+00 0.0000000e+00 
4.6008557e-01 1.0000000e-01 0.0000000e+00 
4.6697357e-01 0.0000000e+00 0.0000000e+00 
6.2771249e-01 1.0000000e-01 0.0000000e+00 
6.3798475e-01 0.0000000e+00 0.0000000e+00 
8.0424988e-01 1.0000000e-01 0.0000000e+00 
8.1830680e-01 0.0000000e+00 0.0000000e+00 
9.9085975e-01 1.0000000e-01 0.0000000e+00 
1.0091403e+00 0.0000000e+00 0.0000000e+00 
1.1816932e+00 1.0000000e-01 0.0000000e+00 
1.1957501e+00 0.0000000e+00 0.0000000e+00 
1.3620152e+00 1.0000000e-01 0.0000000e+00 
1.3722875e+00 0.0000000e+00 0.0000000e+00 
1.5330265e+00 1.0000000e-01 0.0000000e+00 
1.5399145e+00 0.0000000e+00 0.0000000e+00 
1.6957705e+00 1.0000000e-01 0.0000000e+00 
1.6996379e+00 0.0000000e+00 0.0000000e+00 
1.8511606e+00 1.0000000e-01 0.0000000e+00 
1.8523363e+00 0.0000000e+00 0.0000000e+00 
2.0000000e+00 1.0000000e-01 0.0000000e+00 
2.0000000e+00 0.0000000e+00 0.0000000e+00 

CELLS 24 96
3 25 24 23
3 0 1 2
3 1 3 2
3 2 3 4
3 24 22 23
3 23 22 21
3 3 5 4
3 4 5 6
3 22 20 21
3 21 20 19
3 5 7 6
3 6 7 8
3 20 18 19
3 19 18 17
3 7 9 8
3 8 9 10
3 18 16 17
3 17 16 15
3 9 11 10
3 10 11 12
3 16 14 15
3 15 14 13
3 11 13 12
3 12 13 14

CELL_TYPES 24
5
5
5
5
5
5
5
5
5
5
5
5
5
5
5
5
5
5
5
5
5
5
5
5
POINT_DATA 26
FIELD FieldData 3
DISPLACEMENT 3 26  float
0.0000000e+00 0.0000000e+00 0.0000000e+00 
0.0000000e+00 0.0000000e+00 0.0000000e+00 
1.6966368e-03 -2.8401979e-03 0.0000000e+00 
-1.8841980e-03 -2.8322218e-03 0.0000000e+00 
3.1001237e-03 -1.1125671e-02 0.0000000e+00 
-3.8952755e-03 -1.1170861e-02 0.0000000e+00 
4.0500253e-03 -2.5117071e-02 0.0000000e+00 
-6.2182797e-03 -2.5321703e-02 0.0000000e+00 
4.3411921e-03 -4.5082945e-02 0.0000000e+00 
-9.0312464e-03 -4.5591477e-02 0.0000000e+00 
3.7714273e-03 -7.1278073e-02 0.0000000e+00 
-1.2498333e-02 -7.2272338e-02 0.0000000e+00 
2.1530224e-03 -1.0391620e-01 0.0000000e+00 
-1.6752843e-02 -1.0560642e-01 0.0000000e+00 
-4.9389806e-04 -1.4170419e-01 0.0000000e+00 
-2.1451114e-02 -1.4248301e-01 0.0000000e+00 
-3.8983924e-03 -1.8072961e-01 0.0000000e+00 
-2.6383003e-02 -1.8054383e-01 0.0000000e+00 
-7.8501096e-03 -2.2006625e-01 0.0000000e+00 
-3.1407394e-02 -2.1893954e-01 0.0000000e+00 
-1.2156165e-02 -2.5903401e-01 0.0000000e+00 
-3.6399353e-02 -2.5704333e-01 0.0000000e+00 
-1.6653592e-02 -2.9714513e-01 0.0000000e+00 
-4.1254818e-02 -2.9439875e-01 0.0000000e+00 
-2.1212975e-02 -3.3405694e-01 0.0000000e+00 
-4.5905463e-02 -3.3095324e-01 0.0000000e+00 
REACTION 3 26  float
0.0000000e+00 0.0000000e+00 0.0000000e+00 
0.0000000e+00 0.0000000e+00 0.0000000e+00 
0.0000000e+00 0.0000000e+00 0.0000000e+00 
0.0000000e+00 0.0000000e+00 0.0000000e+00 
0.0000000e+00 0.0000000e+00 0.0000000e+00 
0.0000000e+00 0.0000000e+00 0.0000000e+00 
0.0000000e+00 0.0000000e+00 0.0000000e+00 
0.0000000e+00 0.0000000e+00 0.0000000e+00 
0.0000000e+00 0.0000000e+00 0.0000000e+00 
0.0000000e+00 0.0000000e+00 0.0000000e+00 
0.0000000e+00 0.0000000e+00 0.0000000e+00 
0.0000000e+00 0.0000000e+00 0.0000000e+00 
0.0000000e+00 0.0000000e+00 0.0000000e+00 
0.0000000e+00 0.0000000e+00 0.0000000e+00 
0.0000000e+00 0.0000000e+00 0.0000000e+00 
0.0000000e+00 0.0000000e+00 0.0000000e+00 
0.0000000e+00 0.0000000e+00 0.0000000e+00 
0.0000000e+00 0.0000000e+00 0.0000000e+00 
0.0000000e+00 0.0000000e+00 0.0000000e+00 
0.0000000e+00 0.0000000e+00 0.0000000e+00 
0.0000000e+00 0.0000000e+00 0.0000000e+00 
0.0000000e+00 0.0000000e+00 0.0000000e+00 
0.0000000e+00 0.0000000e+00 0.0000000e+00 
0.0000000e+00 0.0000000e+00 0.0000000e+00 
0.0000000e+00 0.0000000e+00 0.0000000e+00 
0.0000000e+00 0.0000000e+00 0.0000000e+00 
VON_MISES_STRESS 1 26  float
3.5670147e+09
3.4629842e+09
3.4064084e+09
3.2497812e+09
3.1467589e+09
2.9886897e+09
2.8827988e+09
2.7102049e+09
2.5997420e+09
2.4108270e+09
2.2935982e+09
2.0859512e+09
1.9717221e+09
1.7432852e+09
1.6283139e+09
1.3888575e+09
1.2927981e+09
1.0641315e+09
9.7732851e+08
7.6136288e+08
6.8396083e+08
4.8409834e+08
4.1770502e+08
2.5612162e+08
2.3781446e+08
1.2453752e+08
CELL_DATA 24
FIELD FieldData 0
