# vtk DataFile Version 4.0
vtk output
ASCII
DATASET UNSTRUCTURED_GRID
POINTS 26 float
0.0000000e+00 1.0000000e-01 0.0000000e+00 
0.0000000e+00 0.0000000e+00 0.0000000e+00 
1.4766368e-01 1.0000000e-01 0.0000000e+00 
1.4883940e-01 0.0000000e+00 0.0000000e+00 
3.0036214e-01 1.0000000e-01 0.0000000e+00 
3.0422947e-01 0.0000000e+00 0.0000000e+00 
4.6008557e-01 1.0000000e-01 0.0000000e+00 
4.6697357e-01 0.0000000e+00 0.0000000e+00 
6.2771249e-01 1.0000000e-01 0.0000000e+00 
6.3798475e-01 0.0000000e+00 0.0000000e+00 
8.0424988e-01 1.0000000e-01 0.0000000e+00 
8.1830680e-01 0.0000000e+00 0.0000000e+00 
9.9085975e-01 1.0000000e-01 0.0000000e+00 
1.0091403e+00 0.0000000e+00 0.0000000e+00 
1.1816932e+00 1.0000000e-01 0.0000000e+00 
1.1957501e+00 0.0000000e+00 0.0000000e+00 
1.3620152e+00 1.0000000e-01 0.0000000e+00 
1.3722875e+00 0.0000000e+00 0.0000000e+00 
1.5330265e+00 1.0000000e-01 0.0000000e+00 
1.5399145e+00 0.0000000e+00 0.0000000e+00 
1.6957705e+00 1.0000000e-01 0.0000000e+00 
1.6996379e+00 0.0000000e+00 0.0000000e+00 
1.8511606e+00 1.0000000e-01 0.0000000e+00 
1.8523363e+00 0.0000000e+00 0.0000000e+00 
2.0000000e+00 1.0000000e-01 0.0000000e+00 
2.0000000e+00 0.0000000e+00 0.0000000e+00 

CELLS 24 96
3 25 24 23
3 0 1 2
3 1 3 2
3 2 3 4
3 24 22 23
3 23 22 21
3 3 5 4
3 4 5 6
3 22 20 21
3 21 20 19
3 5 7 6
3 6 7 8
3 20 18 19
3 19 18 17
3 7 9 8
3 8 9 10
3 18 16 17
3 17 16 15
3 9 11 10
3 10 11 12
3 16 14 15
3 15 14 13
3 11 13 12
3 12 13 14

CELL_TYPES 24
5
5
5
5
5
5
5
5
5
5
5
5
5
5
5
5
5
5
5
5
5
5
5
5
POINT_DATA 26
FIELD FieldData 3
DISPLACEMENT 3 26  float
0.0000000e+00 0.0000000e+00 0.0000000e+00 
0.0000000e+00 0.0000000e+00 0.0000000e+00 
7.5021987e-03 -1.6148236e-02 0.0000000e+00 
-1.1937470e-02 -1.4189471e-02 0.0000000e+00 
8.7036584e-03 -6.2134497e-02 0.0000000e+00 
-2.8226277e-02 -5.6405526e-02 0.0000000e+00 
-1.3232093e-03 -1.3655138e-01 0.0000000e+00 
-5.3563390e-02 -1.2583861e-01 0.0000000e+00 
-2.6365487e-02 -2.3722495e-01 0.0000000e+00 
-9.1833465e-02 -2.2120669e-01 0.0000000e+00 
-6.9148578e-02 -3.6192247e-01 0.0000000e+00 
-1.4600796e-01 -3.4102029e-01 0.0000000e+00 
-1.3142657e-01 -5.0861514e-01 0.0000000e+00 
-2.1812493e-01 -4.8383680e-01 0.0000000e+00 
-2.1085060e-01 -6.6977465e-01 0.0000000e+00 
-3.0181387e-01 -6.3522494e-01 0.0000000e+00 
-2.9824179e-01 -8.2894027e-01 0.0000000e+00 
-3.9129913e-01 -7.8596431e-01 0.0000000e+00 
-3.9005932e-01 -9.8397750e-01 0.0000000e+00 
-4.8379505e-01 -9.3400443e-01 0.0000000e+00 
-4.8364061e-01 -1.1338741e+00 0.0000000e+00 
-5.7717282e-01 -1.0782706e+00 0.0000000e+00 
-5.7705563e-01 -1.2782477e+00 0.0000000e+00 
-6.6985220e-01 -1.2182627e+00 0.0000000e+00 
-6.6891855e-01 -1.4170537e+00 0.0000000e+00 
-7.6147395e-01 -1.3549325e+00 0.0000000e+00 
REACTION 3 26  float
0.0000000e+00 0.0000000e+00 0.0000000e+00 
0.0000000e+00 0.0000000e+00 0.0000000e+00 
0.0000000e+00 0.0000000e+00 0.0000000e+00 
0.0000000e+00 0.0000000e+00 0.0000000e+00 
0.0000000e+00 0.0000000e+00 0.0000000e+00 
0.0000000e+00 0.0000000e+00 0.0000000e+00 
0.0000000e+00 0.0000000e+00 0.0000000e+00 
0.0000000e+00 0.0000000e+00 0.0000000e+00 
0.0000000e+00 0.0000000e+00 0.0000000e+00 
0.0000000e+00 0.0000000e+00 0.0000000e+00 
0.0000000e+00 0.0000000e+00 0.0000000e+00 
0.0000000e+00 0.0000000e+00 0.0000000e+00 
0.0000000e+00 0.0000000e+00 0.0000000e+00 
0.0000000e+00 0.0000000e+00 0.0000000e+00 
0.0000000e+00 0.0000000e+00 0.0000000e+00 
0.0000000e+00 0.0000000e+00 0.0000000e+00 
0.0000000e+00 0.0000000e+00 0.0000000e+00 
0.0000000e+00 0.0000000e+00 0.0000000e+00 
0.0000000e+00 0.0000000e+00 0.0000000e+00 
0.0000000e+00 0.0000000e+00 0.0000000e+00 
0.0000000e+00 0.0000000e+00 0.0000000e+00 
0.0000000e+00 0.0000000e+00 0.0000000e+00 
0.0000000e+00 0.0000000e+00 0.0000000e+00 
0.0000000e+00 0.0000000e+00 0.0000000e+00 
0.0000000e+00 0.0000000e+00 0.0000000e+00 
0.0000000e+00 0.0000000e+00 0.0000000e+00 
VON_MISES_STRESS 1 26  float
1.9167896e+10
1.8968869e+10
1.8393698e+10
1.7400402e+10
1.6318844e+10
1.5126680e+10
1.4253067e+10
1.2932912e+10
1.2238719e+10
1.0844155e+10
1.0297831e+10
8.8674171e+09
8.4904397e+09
7.0685978e+09
6.8144046e+09
5.4269148e+09
5.3428111e+09
4.0764470e+09
4.0892129e+09
2.9230085e+09
3.0077829e+09
1.9210296e+09
2.0570885e+09
1.0588651e+09
1.1620984e+09
1.1796758e+08
CELL_DATA 24
FIELD FieldData 0
