# vtk DataFile Version 4.0
vtk output
ASCII
DATASET UNSTRUCTURED_GRID
POINTS 26 float
0.0000000e+00 1.0000000e-01 0.0000000e+00 
0.0000000e+00 0.0000000e+00 0.0000000e+00 
1.4766368e-01 1.0000000e-01 0.0000000e+00 
1.4883940e-01 0.0000000e+00 0.0000000e+00 
3.0036214e-01 1.0000000e-01 0.0000000e+00 
3.0422947e-01 0.0000000e+00 0.0000000e+00 
4.6008557e-01 1.0000000e-01 0.0000000e+00 
4.6697357e-01 0.0000000e+00 0.0000000e+00 
6.2771249e-01 1.0000000e-01 0.0000000e+00 
6.3798475e-01 0.0000000e+00 0.0000000e+00 
8.0424988e-01 1.0000000e-01 0.0000000e+00 
8.1830680e-01 0.0000000e+00 0.0000000e+00 
9.9085975e-01 1.0000000e-01 0.0000000e+00 
1.0091403e+00 0.0000000e+00 0.0000000e+00 
1.1816932e+00 1.0000000e-01 0.0000000e+00 
1.1957501e+00 0.0000000e+00 0.0000000e+00 
1.3620152e+00 1.0000000e-01 0.0000000e+00 
1.3722875e+00 0.0000000e+00 0.0000000e+00 
1.5330265e+00 1.0000000e-01 0.0000000e+00 
1.5399145e+00 0.0000000e+00 0.0000000e+00 
1.6957705e+00 1.0000000e-01 0.0000000e+00 
1.6996379e+00 0.0000000e+00 0.0000000e+00 
1.8511606e+00 1.0000000e-01 0.0000000e+00 
1.8523363e+00 0.0000000e+00 0.0000000e+00 
2.0000000e+00 1.0000000e-01 0.0000000e+00 
2.0000000e+00 0.0000000e+00 0.0000000e+00 

CELLS 24 96
3 25 24 23
3 0 1 2
3 1 3 2
3 2 3 4
3 24 22 23
3 23 22 21
3 3 5 4
3 4 5 6
3 22 20 21
3 21 20 19
3 5 7 6
3 6 7 8
3 20 18 19
3 19 18 17
3 7 9 8
3 8 9 10
3 18 16 17
3 17 16 15
3 9 11 10
3 10 11 12
3 16 14 15
3 15 14 13
3 11 13 12
3 12 13 14

CELL_TYPES 24
5
5
5
5
5
5
5
5
5
5
5
5
5
5
5
5
5
5
5
5
5
5
5
5
POINT_DATA 26
FIELD FieldData 3
DISPLACEMENT 3 26  float
0.0000000e+00 0.0000000e+00 0.0000000e+00 
0.0000000e+00 0.0000000e+00 0.0000000e+00 
4.7638877e-03 -8.8585867e-03 0.0000000e+00 
-6.2329667e-03 -8.3194124e-03 0.0000000e+00 
7.4204500e-03 -3.4627929e-02 0.0000000e+00 
-1.3943130e-02 -3.3130761e-02 0.0000000e+00 
6.2453486e-03 -7.7682801e-02 0.0000000e+00 
-2.4842422e-02 -7.4954525e-02 0.0000000e+00 
-4.3320892e-04 -1.3816816e-01 0.0000000e+00 
-4.0553275e-02 -1.3418962e-01 0.0000000e+00 
-1.4115495e-02 -2.1609926e-01 0.0000000e+00 
-6.2535957e-02 -2.1111079e-01 0.0000000e+00 
-3.6052465e-02 -3.1136212e-01 0.0000000e+00 
-9.1984682e-02 -3.0585173e-01 0.0000000e+00 
-6.5823205e-02 -4.1969237e-01 0.0000000e+00 
-1.2658590e-01 -4.0928248e-01 0.0000000e+00 
-1.0013790e-01 -5.2978408e-01 0.0000000e+00 
-1.6414773e-01 -5.1480532e-01 0.0000000e+00 
-1.3738215e-01 -6.3935143e-01 0.0000000e+00 
-2.0340343e-01 -6.2035316e-01 0.0000000e+00 
-1.7618127e-01 -7.4689358e-01 0.0000000e+00 
-2.4327324e-01 -7.2453046e-01 0.0000000e+00 
-2.1543346e-01 -8.5145164e-01 0.0000000e+00 
-2.8287965e-01 -8.2640839e-01 0.0000000e+00 
-2.5428802e-01 -9.5242614e-01 0.0000000e+00 
-3.2180104e-01 -9.2618078e-01 0.0000000e+00 
REACTION 3 26  float
0.0000000e+00 0.0000000e+00 0.0000000e+00 
0.0000000e+00 0.0000000e+00 0.0000000e+00 
0.0000000e+00 0.0000000e+00 0.0000000e+00 
0.0000000e+00 0.0000000e+00 0.0000000e+00 
0.0000000e+00 0.0000000e+00 0.0000000e+00 
0.0000000e+00 0.0000000e+00 0.0000000e+00 
0.0000000e+00 0.0000000e+00 0.0000000e+00 
0.0000000e+00 0.0000000e+00 0.0000000e+00 
0.0000000e+00 0.0000000e+00 0.0000000e+00 
0.0000000e+00 0.0000000e+00 0.0000000e+00 
0.0000000e+00 0.0000000e+00 0.0000000e+00 
0.0000000e+00 0.0000000e+00 0.0000000e+00 
0.0000000e+00 0.0000000e+00 0.0000000e+00 
0.0000000e+00 0.0000000e+00 0.0000000e+00 
0.0000000e+00 0.0000000e+00 0.0000000e+00 
0.0000000e+00 0.0000000e+00 0.0000000e+00 
0.0000000e+00 0.0000000e+00 0.0000000e+00 
0.0000000e+00 0.0000000e+00 0.0000000e+00 
0.0000000e+00 0.0000000e+00 0.0000000e+00 
0.0000000e+00 0.0000000e+00 0.0000000e+00 
0.0000000e+00 0.0000000e+00 0.0000000e+00 
0.0000000e+00 0.0000000e+00 0.0000000e+00 
0.0000000e+00 0.0000000e+00 0.0000000e+00 
0.0000000e+00 0.0000000e+00 0.0000000e+00 
0.0000000e+00 0.0000000e+00 0.0000000e+00 
0.0000000e+00 0.0000000e+00 0.0000000e+00 
VON_MISES_STRESS 1 26  float
1.0858032e+10
1.0678985e+10
1.0445315e+10
9.9908536e+09
9.5546092e+09
9.0479759e+09
8.6467809e+09
8.0732273e+09
7.7001313e+09
7.0647997e+09
6.7113882e+09
6.0174182e+09
5.7091896e+09
4.9640166e+09
4.6835446e+09
3.9147295e+09
3.7112251e+09
2.9826785e+09
2.8208622e+09
2.1325898e+09
2.0062076e+09
1.3578820e+09
1.2611666e+09
6.9720493e+08
6.8429094e+08
2.0068590e+08
CELL_DATA 24
FIELD FieldData 0
