# vtk DataFile Version 4.0
vtk output
ASCII
DATASET UNSTRUCTURED_GRID
POINTS 26 float
0.0000000e+00 1.0000000e-01 0.0000000e+00 
0.0000000e+00 0.0000000e+00 0.0000000e+00 
1.4766368e-01 1.0000000e-01 0.0000000e+00 
1.4883940e-01 0.0000000e+00 0.0000000e+00 
3.0036214e-01 1.0000000e-01 0.0000000e+00 
3.0422947e-01 0.0000000e+00 0.0000000e+00 
4.6008557e-01 1.0000000e-01 0.0000000e+00 
4.6697357e-01 0.0000000e+00 0.0000000e+00 
6.2771249e-01 1.0000000e-01 0.0000000e+00 
6.3798475e-01 0.0000000e+00 0.0000000e+00 
8.0424988e-01 1.0000000e-01 0.0000000e+00 
8.1830680e-01 0.0000000e+00 0.0000000e+00 
9.9085975e-01 1.0000000e-01 0.0000000e+00 
1.0091403e+00 0.0000000e+00 0.0000000e+00 
1.1816932e+00 1.0000000e-01 0.0000000e+00 
1.1957501e+00 0.0000000e+00 0.0000000e+00 
1.3620152e+00 1.0000000e-01 0.0000000e+00 
1.3722875e+00 0.0000000e+00 0.0000000e+00 
1.5330265e+00 1.0000000e-01 0.0000000e+00 
1.5399145e+00 0.0000000e+00 0.0000000e+00 
1.6957705e+00 1.0000000e-01 0.0000000e+00 
1.6996379e+00 0.0000000e+00 0.0000000e+00 
1.8511606e+00 1.0000000e-01 0.0000000e+00 
1.8523363e+00 0.0000000e+00 0.0000000e+00 
2.0000000e+00 1.0000000e-01 0.0000000e+00 
2.0000000e+00 0.0000000e+00 0.0000000e+00 

CELLS 24 96
3 25 24 23
3 0 1 2
3 1 3 2
3 2 3 4
3 24 22 23
3 23 22 21
3 3 5 4
3 4 5 6
3 22 20 21
3 21 20 19
3 5 7 6
3 6 7 8
3 20 18 19
3 19 18 17
3 7 9 8
3 8 9 10
3 18 16 17
3 17 16 15
3 9 11 10
3 10 11 12
3 16 14 15
3 15 14 13
3 11 13 12
3 12 13 14

CELL_TYPES 24
5
5
5
5
5
5
5
5
5
5
5
5
5
5
5
5
5
5
5
5
5
5
5
5
POINT_DATA 26
FIELD FieldData 3
DISPLACEMENT 3 26  float
0.0000000e+00 0.0000000e+00 0.0000000e+00 
0.0000000e+00 0.0000000e+00 0.0000000e+00 
7.3257735e-04 -1.1945202e-03 0.0000000e+00 
-7.7730435e-04 -1.2112155e-03 0.0000000e+00 
1.3855766e-03 -4.6738982e-03 0.0000000e+00 
-1.5623155e-03 -4.7564730e-03 0.0000000e+00 
1.9403389e-03 -1.0550868e-02 0.0000000e+00 
-2.3854496e-03 -1.0768855e-02 0.0000000e+00 
2.3563020e-03 -1.8948467e-02 0.0000000e+00 
-3.2738578e-03 -1.9383062e-02 0.0000000e+00 
2.5919143e-03 -2.9985918e-02 0.0000000e+00 
-4.2506019e-03 -3.0728444e-02 0.0000000e+00 
2.6066918e-03 -4.3766081e-02 0.0000000e+00 
-5.3308117e-03 -4.4912588e-02 0.0000000e+00 
2.4042118e-03 -5.9750304e-02 0.0000000e+00 
-6.4190463e-03 -6.0612876e-02 0.0000000e+00 
2.0003133e-03 -7.6288193e-02 0.0000000e+00 
-7.4925791e-03 -7.6826610e-02 0.0000000e+00 
1.4400085e-03 -9.2982836e-02 0.0000000e+00 
-8.5319076e-03 -9.3187138e-02 0.0000000e+00 
7.6562900e-04 -1.0953924e-01 0.0000000e+00 
-9.5201982e-03 -1.0942207e-01 0.0000000e+00 
1.3404888e-05 -1.2574337e-01 0.0000000e+00 
-1.0443871e-02 -1.2533188e-01 0.0000000e+00 
-7.8795163e-04 -1.4144346e-01 0.0000000e+00 
-1.1290233e-02 -1.4088719e-01 0.0000000e+00 
REACTION 3 26  float
0.0000000e+00 0.0000000e+00 0.0000000e+00 
0.0000000e+00 0.0000000e+00 0.0000000e+00 
0.0000000e+00 0.0000000e+00 0.0000000e+00 
0.0000000e+00 0.0000000e+00 0.0000000e+00 
0.0000000e+00 0.0000000e+00 0.0000000e+00 
0.0000000e+00 0.0000000e+00 0.0000000e+00 
0.0000000e+00 0.0000000e+00 0.0000000e+00 
0.0000000e+00 0.0000000e+00 0.0000000e+00 
0.0000000e+00 0.0000000e+00 0.0000000e+00 
0.0000000e+00 0.0000000e+00 0.0000000e+00 
0.0000000e+00 0.0000000e+00 0.0000000e+00 
0.0000000e+00 0.0000000e+00 0.0000000e+00 
0.0000000e+00 0.0000000e+00 0.0000000e+00 
0.0000000e+00 0.0000000e+00 0.0000000e+00 
0.0000000e+00 0.0000000e+00 0.0000000e+00 
0.0000000e+00 0.0000000e+00 0.0000000e+00 
0.0000000e+00 0.0000000e+00 0.0000000e+00 
0.0000000e+00 0.0000000e+00 0.0000000e+00 
0.0000000e+00 0.0000000e+00 0.0000000e+00 
0.0000000e+00 0.0000000e+00 0.0000000e+00 
0.0000000e+00 0.0000000e+00 0.0000000e+00 
0.0000000e+00 0.0000000e+00 0.0000000e+00 
0.0000000e+00 0.0000000e+00 0.0000000e+00 
0.0000000e+00 0.0000000e+00 0.0000000e+00 
0.0000000e+00 0.0000000e+00 0.0000000e+00 
0.0000000e+00 0.0000000e+00 0.0000000e+00 
VON_MISES_STRESS 1 26  float
1.5093363e+09
1.4584105e+09
1.4364087e+09
1.3671022e+09
1.3273221e+09
1.2591094e+09
1.2167470e+09
1.1435008e+09
1.0979135e+09
1.0186945e+09
9.6902835e+08
8.8260762e+08
8.3310982e+08
7.3826240e+08
6.8762816e+08
5.8848077e+08
5.4524461e+08
4.5088394e+08
4.1116019e+08
3.2244794e+08
2.8651373e+08
2.0513051e+08
1.7419805e+08
1.0970506e+08
1.0063931e+08
5.8027064e+07
CELL_DATA 24
FIELD FieldData 0
