# vtk DataFile Version 4.0
vtk output
ASCII
DATASET UNSTRUCTURED_GRID
POINTS 26 float
0.0000000e+00 1.0000000e-01 0.0000000e+00 
0.0000000e+00 0.0000000e+00 0.0000000e+00 
1.4766368e-01 1.0000000e-01 0.0000000e+00 
1.4883940e-01 0.0000000e+00 0.0000000e+00 
3.0036214e-01 1.0000000e-01 0.0000000e+00 
3.0422947e-01 0.0000000e+00 0.0000000e+00 
4.6008557e-01 1.0000000e-01 0.0000000e+00 
4.6697357e-01 0.0000000e+00 0.0000000e+00 
6.2771249e-01 1.0000000e-01 0.0000000e+00 
6.3798475e-01 0.0000000e+00 0.0000000e+00 
8.0424988e-01 1.0000000e-01 0.0000000e+00 
8.1830680e-01 0.0000000e+00 0.0000000e+00 
9.9085975e-01 1.0000000e-01 0.0000000e+00 
1.0091403e+00 0.0000000e+00 0.0000000e+00 
1.1816932e+00 1.0000000e-01 0.0000000e+00 
1.1957501e+00 0.0000000e+00 0.0000000e+00 
1.3620152e+00 1.0000000e-01 0.0000000e+00 
1.3722875e+00 0.0000000e+00 0.0000000e+00 
1.5330265e+00 1.0000000e-01 0.0000000e+00 
1.5399145e+00 0.0000000e+00 0.0000000e+00 
1.6957705e+00 1.0000000e-01 0.0000000e+00 
1.6996379e+00 0.0000000e+00 0.0000000e+00 
1.8511606e+00 1.0000000e-01 0.0000000e+00 
1.8523363e+00 0.0000000e+00 0.0000000e+00 
2.0000000e+00 1.0000000e-01 0.0000000e+00 
2.0000000e+00 0.0000000e+00 0.0000000e+00 

CELLS 24 96
3 25 24 23
3 0 1 2
3 1 3 2
3 2 3 4
3 24 22 23
3 23 22 21
3 3 5 4
3 4 5 6
3 22 20 21
3 21 20 19
3 5 7 6
3 6 7 8
3 20 18 19
3 19 18 17
3 7 9 8
3 8 9 10
3 18 16 17
3 17 16 15
3 9 11 10
3 10 11 12
3 16 14 15
3 15 14 13
3 11 13 12
3 12 13 14

CELL_TYPES 24
5
5
5
5
5
5
5
5
5
5
5
5
5
5
5
5
5
5
5
5
5
5
5
5
POINT_DATA 26
FIELD FieldData 3
DISPLACEMENT 3 26  float
0.0000000e+00 0.0000000e+00 0.0000000e+00 
0.0000000e+00 0.0000000e+00 0.0000000e+00 
5.3268145e-03 -1.0150290e-02 0.0000000e+00 
-7.2162217e-03 -9.4148722e-03 0.0000000e+00 
7.9515139e-03 -3.9607026e-02 0.0000000e+00 
-1.6348315e-02 -3.7520465e-02 0.0000000e+00 
5.6423675e-03 -8.8614255e-02 0.0000000e+00 
-2.9585542e-02 -8.4746383e-02 0.0000000e+00 
-3.6876181e-03 -1.5709004e-01 0.0000000e+00 
-4.8968606e-02 -1.5134349e-01 0.0000000e+00 
-2.1859005e-02 -2.4479327e-01 0.0000000e+00 
-7.6298192e-02 -2.3740286e-01 0.0000000e+00 
-5.0342463e-02 -3.5135594e-01 0.0000000e+00 
-1.1301794e-01 -3.4286863e-01 0.0000000e+00 
-8.8503025e-02 -4.7185856e-01 0.0000000e+00 
-1.5619537e-01 -4.5747602e-01 0.0000000e+00 
-1.3207813e-01 -5.9373069e-01 0.0000000e+00 
-2.0302774e-01 -5.7394189e-01 0.0000000e+00 
-1.7906770e-01 -7.1457011e-01 0.0000000e+00 
-2.5194129e-01 -6.9008869e-01 0.0000000e+00 
-2.2780216e-01 -8.3285981e-01 0.0000000e+00 
-3.0161595e-01 -8.0449313e-01 0.0000000e+00 
-2.7696356e-01 -9.4767296e-01 0.0000000e+00 
-3.5099223e-01 -9.1624153e-01 0.0000000e+00 
-3.2554480e-01 -1.0584611e+00 0.0000000e+00 
-3.9959806e-01 -1.0256484e+00 0.0000000e+00 
REACTION 3 26  float
0.0000000e+00 0.0000000e+00 0.0000000e+00 
0.0000000e+00 0.0000000e+00 0.0000000e+00 
0.0000000e+00 0.0000000e+00 0.0000000e+00 
0.0000000e+00 0.0000000e+00 0.0000000e+00 
0.0000000e+00 0.0000000e+00 0.0000000e+00 
0.0000000e+00 0.0000000e+00 0.0000000e+00 
0.0000000e+00 0.0000000e+00 0.0000000e+00 
0.0000000e+00 0.0000000e+00 0.0000000e+00 
0.0000000e+00 0.0000000e+00 0.0000000e+00 
0.0000000e+00 0.0000000e+00 0.0000000e+00 
0.0000000e+00 0.0000000e+00 0.0000000e+00 
0.0000000e+00 0.0000000e+00 0.0000000e+00 
0.0000000e+00 0.0000000e+00 0.0000000e+00 
0.0000000e+00 0.0000000e+00 0.0000000e+00 
0.0000000e+00 0.0000000e+00 0.0000000e+00 
0.0000000e+00 0.0000000e+00 0.0000000e+00 
0.0000000e+00 0.0000000e+00 0.0000000e+00 
0.0000000e+00 0.0000000e+00 0.0000000e+00 
0.0000000e+00 0.0000000e+00 0.0000000e+00 
0.0000000e+00 0.0000000e+00 0.0000000e+00 
0.0000000e+00 0.0000000e+00 0.0000000e+00 
0.0000000e+00 0.0000000e+00 0.0000000e+00 
0.0000000e+00 0.0000000e+00 0.0000000e+00 
0.0000000e+00 0.0000000e+00 0.0000000e+00 
0.0000000e+00 0.0000000e+00 0.0000000e+00 
0.0000000e+00 0.0000000e+00 0.0000000e+00 
VON_MISES_STRESS 1 26  float
1.2372259e+10
1.2190785e+10
1.1907331e+10
1.1380145e+10
1.0849035e+10
1.0250018e+10
9.7722839e+09
9.0933586e+09
8.6602977e+09
7.9114629e+09
7.5126277e+09
6.7010668e+09
6.3637960e+09
5.5019489e+09
5.2048927e+09
4.3226916e+09
4.1181363e+09
3.2863585e+09
3.1326351e+09
2.3490358e+09
2.2372931e+09
1.4983616e+09
1.4202580e+09
7.6600672e+08
7.6277210e+08
1.7766206e+08
CELL_DATA 24
FIELD FieldData 0
