# vtk DataFile Version 4.0
vtk output
ASCII
DATASET UNSTRUCTURED_GRID
POINTS 26 float
0.0000000e+00 1.0000000e-01 0.0000000e+00 
0.0000000e+00 0.0000000e+00 0.0000000e+00 
1.4766368e-01 1.0000000e-01 0.0000000e+00 
1.4883940e-01 0.0000000e+00 0.0000000e+00 
3.0036214e-01 1.0000000e-01 0.0000000e+00 
3.0422947e-01 0.0000000e+00 0.0000000e+00 
4.6008557e-01 1.0000000e-01 0.0000000e+00 
4.6697357e-01 0.0000000e+00 0.0000000e+00 
6.2771249e-01 1.0000000e-01 0.0000000e+00 
6.3798475e-01 0.0000000e+00 0.0000000e+00 
8.0424988e-01 1.0000000e-01 0.0000000e+00 
8.1830680e-01 0.0000000e+00 0.0000000e+00 
9.9085975e-01 1.0000000e-01 0.0000000e+00 
1.0091403e+00 0.0000000e+00 0.0000000e+00 
1.1816932e+00 1.0000000e-01 0.0000000e+00 
1.1957501e+00 0.0000000e+00 0.0000000e+00 
1.3620152e+00 1.0000000e-01 0.0000000e+00 
1.3722875e+00 0.0000000e+00 0.0000000e+00 
1.5330265e+00 1.0000000e-01 0.0000000e+00 
1.5399145e+00 0.0000000e+00 0.0000000e+00 
1.6957705e+00 1.0000000e-01 0.0000000e+00 
1.6996379e+00 0.0000000e+00 0.0000000e+00 
1.8511606e+00 1.0000000e-01 0.0000000e+00 
1.8523363e+00 0.0000000e+00 0.0000000e+00 
2.0000000e+00 1.0000000e-01 0.0000000e+00 
2.0000000e+00 0.0000000e+00 0.0000000e+00 

CELLS 24 96
3 25 24 23
3 0 1 2
3 1 3 2
3 2 3 4
3 24 22 23
3 23 22 21
3 3 5 4
3 4 5 6
3 22 20 21
3 21 20 19
3 5 7 6
3 6 7 8
3 20 18 19
3 19 18 17
3 7 9 8
3 8 9 10
3 18 16 17
3 17 16 15
3 9 11 10
3 10 11 12
3 16 14 15
3 15 14 13
3 11 13 12
3 12 13 14

CELL_TYPES 24
5
5
5
5
5
5
5
5
5
5
5
5
5
5
5
5
5
5
5
5
5
5
5
5
POINT_DATA 26
FIELD FieldData 3
DISPLACEMENT 3 26  float
0.0000000e+00 0.0000000e+00 0.0000000e+00 
0.0000000e+00 0.0000000e+00 0.0000000e+00 
3.8348057e-03 -6.8776314e-03 0.0000000e+00 
-4.7556609e-03 -6.5857572e-03 0.0000000e+00 
6.3366266e-03 -2.6932944e-02 0.0000000e+00 
-1.0405242e-02 -2.6173284e-02 0.0000000e+00 
6.4579993e-03 -6.0615156e-02 0.0000000e+00 
-1.8014498e-02 -5.9315030e-02 0.0000000e+00 
3.1235998e-03 -1.0826398e-01 0.0000000e+00 
-2.8612118e-02 -1.0650904e-01 0.0000000e+00 
-4.6673114e-03 -1.7013876e-01 0.0000000e+00 
-4.3144930e-02 -1.6817975e-01 0.0000000e+00 
-1.7783811e-02 -2.4638982e-01 0.0000000e+00 
-6.2403124e-02 -2.4463460e-01 0.0000000e+00 
-3.6028516e-02 -3.3376196e-01 0.0000000e+00 
-8.4896371e-02 -3.2860982e-01 0.0000000e+00 
-5.7421785e-02 -4.2314875e-01 0.0000000e+00 
-1.0927171e-01 -4.1473293e-01 0.0000000e+00 
-8.0911919e-02 -5.1257503e-01 0.0000000e+00 
-1.3471349e-01 -5.0121611e-01 0.0000000e+00 
-1.0557830e-01 -6.0067898e-01 0.0000000e+00 
-1.6051222e-01 -5.8680260e-01 0.0000000e+00 
-1.3066754e-01 -6.8654341e-01 0.0000000e+00 
-1.8608253e-01 -6.7061955e-01 0.0000000e+00 
-1.5559022e-01 -7.6956129e-01 0.0000000e+00 
-2.1111412e-01 -7.5271642e-01 0.0000000e+00 
REACTION 3 26  float
0.0000000e+00 0.0000000e+00 0.0000000e+00 
0.0000000e+00 0.0000000e+00 0.0000000e+00 
0.0000000e+00 0.0000000e+00 0.0000000e+00 
0.0000000e+00 0.0000000e+00 0.0000000e+00 
0.0000000e+00 0.0000000e+00 0.0000000e+00 
0.0000000e+00 0.0000000e+00 0.0000000e+00 
0.0000000e+00 0.0000000e+00 0.0000000e+00 
0.0000000e+00 0.0000000e+00 0.0000000e+00 
0.0000000e+00 0.0000000e+00 0.0000000e+00 
0.0000000e+00 0.0000000e+00 0.0000000e+00 
0.0000000e+00 0.0000000e+00 0.0000000e+00 
0.0000000e+00 0.0000000e+00 0.0000000e+00 
0.0000000e+00 0.0000000e+00 0.0000000e+00 
0.0000000e+00 0.0000000e+00 0.0000000e+00 
0.0000000e+00 0.0000000e+00 0.0000000e+00 
0.0000000e+00 0.0000000e+00 0.0000000e+00 
0.0000000e+00 0.0000000e+00 0.0000000e+00 
0.0000000e+00 0.0000000e+00 0.0000000e+00 
0.0000000e+00 0.0000000e+00 0.0000000e+00 
0.0000000e+00 0.0000000e+00 0.0000000e+00 
0.0000000e+00 0.0000000e+00 0.0000000e+00 
0.0000000e+00 0.0000000e+00 0.0000000e+00 
0.0000000e+00 0.0000000e+00 0.0000000e+00 
0.0000000e+00 0.0000000e+00 0.0000000e+00 
0.0000000e+00 0.0000000e+00 0.0000000e+00 
0.0000000e+00 0.0000000e+00 0.0000000e+00 
VON_MISES_STRESS 1 26  float
8.5004872e+09
8.3311770e+09
8.1653965e+09
7.8122230e+09
7.5049144e+09
7.1236608e+09
6.8311229e+09
6.4023480e+09
6.1196928e+09
5.6438036e+09
5.3650299e+09
4.8411162e+09
4.5875830e+09
4.0174533e+09
3.7770138e+09
3.1832627e+09
2.9978744e+09
2.4320218e+09
2.2756334e+09
1.7397215e+09
1.6092531e+09
1.1062241e+09
9.9943373e+08
5.7270586e+08
5.5072870e+08
2.0779762e+08
CELL_DATA 24
FIELD FieldData 0
