# vtk DataFile Version 4.0
vtk output
ASCII
DATASET UNSTRUCTURED_GRID
POINTS 26 float
0.0000000e+00 1.0000000e-01 0.0000000e+00 
0.0000000e+00 0.0000000e+00 0.0000000e+00 
1.4766368e-01 1.0000000e-01 0.0000000e+00 
1.4883940e-01 0.0000000e+00 0.0000000e+00 
3.0036214e-01 1.0000000e-01 0.0000000e+00 
3.0422947e-01 0.0000000e+00 0.0000000e+00 
4.6008557e-01 1.0000000e-01 0.0000000e+00 
4.6697357e-01 0.0000000e+00 0.0000000e+00 
6.2771249e-01 1.0000000e-01 0.0000000e+00 
6.3798475e-01 0.0000000e+00 0.0000000e+00 
8.0424988e-01 1.0000000e-01 0.0000000e+00 
8.1830680e-01 0.0000000e+00 0.0000000e+00 
9.9085975e-01 1.0000000e-01 0.0000000e+00 
1.0091403e+00 0.0000000e+00 0.0000000e+00 
1.1816932e+00 1.0000000e-01 0.0000000e+00 
1.1957501e+00 0.0000000e+00 0.0000000e+00 
1.3620152e+00 1.0000000e-01 0.0000000e+00 
1.3722875e+00 0.0000000e+00 0.0000000e+00 
1.5330265e+00 1.0000000e-01 0.0000000e+00 
1.5399145e+00 0.0000000e+00 0.0000000e+00 
1.6957705e+00 1.0000000e-01 0.0000000e+00 
1.6996379e+00 0.0000000e+00 0.0000000e+00 
1.8511606e+00 1.0000000e-01 0.0000000e+00 
1.8523363e+00 0.0000000e+00 0.0000000e+00 
2.0000000e+00 1.0000000e-01 0.0000000e+00 
2.0000000e+00 0.0000000e+00 0.0000000e+00 

CELLS 24 96
3 25 24 23
3 0 1 2
3 1 3 2
3 2 3 4
3 24 22 23
3 23 22 21
3 3 5 4
3 4 5 6
3 22 20 21
3 21 20 19
3 5 7 6
3 6 7 8
3 20 18 19
3 19 18 17
3 7 9 8
3 8 9 10
3 18 16 17
3 17 16 15
3 9 11 10
3 10 11 12
3 16 14 15
3 15 14 13
3 11 13 12
3 12 13 14

CELL_TYPES 24
5
5
5
5
5
5
5
5
5
5
5
5
5
5
5
5
5
5
5
5
5
5
5
5
POINT_DATA 26
FIELD FieldData 3
DISPLACEMENT 3 26  float
0.0000000e+00 0.0000000e+00 0.0000000e+00 
0.0000000e+00 0.0000000e+00 0.0000000e+00 
7.2715706e-03 -1.5406685e-02 0.0000000e+00 
-1.1342597e-02 -1.3623857e-02 0.0000000e+00 
8.7547880e-03 -5.9412140e-02 0.0000000e+00 
-2.6712121e-02 -5.4199956e-02 0.0000000e+00 
-1.3706584e-04 -1.3091286e-01 0.0000000e+00 
-5.0486553e-02 -1.2114594e-01 0.0000000e+00 
-2.3029776e-02 -2.2807673e-01 0.0000000e+00 
-8.6353958e-02 -2.1343608e-01 0.0000000e+00 
-6.2612921e-02 -3.4896559e-01 0.0000000e+00 
-1.3719884e-01 -3.2982245e-01 0.0000000e+00 
-1.2068471e-01 -4.9176899e-01 0.0000000e+00 
-2.0505047e-01 -4.6905479e-01 0.0000000e+00 
-1.9516136e-01 -6.4921963e-01 0.0000000e+00 
-2.8399080e-01 -6.1710864e-01 0.0000000e+00 
-2.7745748e-01 -8.0516499e-01 0.0000000e+00 
-3.6859342e-01 -7.6489806e-01 0.0000000e+00 
-3.6417902e-01 -9.5737976e-01 0.0000000e+00 
-4.5618755e-01 -9.1031224e-01 0.0000000e+00 
-4.5273867e-01 -1.1047550e+00 0.0000000e+00 
-5.4470605e-01 -1.0522052e+00 0.0000000e+00 
-5.4123902e-01 -1.2468228e+00 0.0000000e+00 
-6.3259709e-01 -1.1900097e+00 0.0000000e+00 
-6.2830520e-01 -1.3834666e+00 0.0000000e+00 
-7.1945596e-01 -1.3246037e+00 0.0000000e+00 
REACTION 3 26  float
0.0000000e+00 0.0000000e+00 0.0000000e+00 
0.0000000e+00 0.0000000e+00 0.0000000e+00 
0.0000000e+00 0.0000000e+00 0.0000000e+00 
0.0000000e+00 0.0000000e+00 0.0000000e+00 
0.0000000e+00 0.0000000e+00 0.0000000e+00 
0.0000000e+00 0.0000000e+00 0.0000000e+00 
0.0000000e+00 0.0000000e+00 0.0000000e+00 
0.0000000e+00 0.0000000e+00 0.0000000e+00 
0.0000000e+00 0.0000000e+00 0.0000000e+00 
0.0000000e+00 0.0000000e+00 0.0000000e+00 
0.0000000e+00 0.0000000e+00 0.0000000e+00 
0.0000000e+00 0.0000000e+00 0.0000000e+00 
0.0000000e+00 0.0000000e+00 0.0000000e+00 
0.0000000e+00 0.0000000e+00 0.0000000e+00 
0.0000000e+00 0.0000000e+00 0.0000000e+00 
0.0000000e+00 0.0000000e+00 0.0000000e+00 
0.0000000e+00 0.0000000e+00 0.0000000e+00 
0.0000000e+00 0.0000000e+00 0.0000000e+00 
0.0000000e+00 0.0000000e+00 0.0000000e+00 
0.0000000e+00 0.0000000e+00 0.0000000e+00 
0.0000000e+00 0.0000000e+00 0.0000000e+00 
0.0000000e+00 0.0000000e+00 0.0000000e+00 
0.0000000e+00 0.0000000e+00 0.0000000e+00 
0.0000000e+00 0.0000000e+00 0.0000000e+00 
0.0000000e+00 0.0000000e+00 0.0000000e+00 
0.0000000e+00 0.0000000e+00 0.0000000e+00 
VON_MISES_STRESS 1 26  float
1.8348055e+10
1.8154199e+10
1.7620619e+10
1.6699511e+10
1.5695316e+10
1.4593590e+10
1.3770933e+10
1.2544894e+10
1.1879425e+10
1.0575466e+10
1.0039820e+10
8.6918687e+09
8.3098665e+09
6.9581010e+09
6.6870287e+09
5.3594255e+09
5.2489165e+09
4.0317276e+09
4.0124692e+09
2.8875108e+09
2.9368824e+09
1.8848326e+09
1.9836877e+09
1.0035756e+09
1.0810103e+09
6.5453612e+07
CELL_DATA 24
FIELD FieldData 0
