# vtk DataFile Version 4.0
vtk output
ASCII
DATASET UNSTRUCTURED_GRID
POINTS 26 float
0.0000000e+00 1.0000000e-01 0.0000000e+00 
0.0000000e+00 0.0000000e+00 0.0000000e+00 
1.4766368e-01 1.0000000e-01 0.0000000e+00 
1.4883940e-01 0.0000000e+00 0.0000000e+00 
3.0036214e-01 1.0000000e-01 0.0000000e+00 
3.0422947e-01 0.0000000e+00 0.0000000e+00 
4.6008557e-01 1.0000000e-01 0.0000000e+00 
4.6697357e-01 0.0000000e+00 0.0000000e+00 
6.2771249e-01 1.0000000e-01 0.0000000e+00 
6.3798475e-01 0.0000000e+00 0.0000000e+00 
8.0424988e-01 1.0000000e-01 0.0000000e+00 
8.1830680e-01 0.0000000e+00 0.0000000e+00 
9.9085975e-01 1.0000000e-01 0.0000000e+00 
1.0091403e+00 0.0000000e+00 0.0000000e+00 
1.1816932e+00 1.0000000e-01 0.0000000e+00 
1.1957501e+00 0.0000000e+00 0.0000000e+00 
1.3620152e+00 1.0000000e-01 0.0000000e+00 
1.3722875e+00 0.0000000e+00 0.0000000e+00 
1.5330265e+00 1.0000000e-01 0.0000000e+00 
1.5399145e+00 0.0000000e+00 0.0000000e+00 
1.6957705e+00 1.0000000e-01 0.0000000e+00 
1.6996379e+00 0.0000000e+00 0.0000000e+00 
1.8511606e+00 1.0000000e-01 0.0000000e+00 
1.8523363e+00 0.0000000e+00 0.0000000e+00 
2.0000000e+00 1.0000000e-01 0.0000000e+00 
2.0000000e+00 0.0000000e+00 0.0000000e+00 

CELLS 24 96
3 25 24 23
3 0 1 2
3 1 3 2
3 2 3 4
3 24 22 23
3 23 22 21
3 3 5 4
3 4 5 6
3 22 20 21
3 21 20 19
3 5 7 6
3 6 7 8
3 20 18 19
3 19 18 17
3 7 9 8
3 8 9 10
3 18 16 17
3 17 16 15
3 9 11 10
3 10 11 12
3 16 14 15
3 15 14 13
3 11 13 12
3 12 13 14

CELL_TYPES 24
5
5
5
5
5
5
5
5
5
5
5
5
5
5
5
5
5
5
5
5
5
5
5
5
POINT_DATA 26
FIELD FieldData 3
DISPLACEMENT 3 26  float
0.0000000e+00 0.0000000e+00 0.0000000e+00 
0.0000000e+00 0.0000000e+00 0.0000000e+00 
3.6434268e-03 -6.4894347e-03 0.0000000e+00 
-4.4709723e-03 -6.2380265e-03 0.0000000e+00 
6.0855374e-03 -2.5418459e-02 0.0000000e+00 
-9.7359521e-03 -2.4778157e-02 0.0000000e+00 
6.3947286e-03 -5.7235334e-02 0.0000000e+00 
-1.6748566e-02 -5.6165352e-02 0.0000000e+00 
3.6028274e-03 -1.0229775e-01 0.0000000e+00 
-2.6431549e-02 -1.0090011e-01 0.0000000e+00 
-3.1968269e-03 -1.6089199e-01 0.0000000e+00 
-3.9636891e-02 -1.5941778e-01 0.0000000e+00 
-1.4797155e-02 -2.3320137e-01 0.0000000e+00 
-5.7077277e-02 -2.3204271e-01 0.0000000e+00 
-3.1031560e-02 -3.1616625e-01 0.0000000e+00 
-7.7404439e-02 -3.1189227e-01 0.0000000e+00 
-5.0145313e-02 -4.0114379e-01 0.0000000e+00 
-9.9411771e-02 -3.9385656e-01 0.0000000e+00 
-7.1188897e-02 -4.8623750e-01 0.0000000e+00 
-1.2236589e-01 -4.7621778e-01 0.0000000e+00 
-9.3326978e-02 -5.7012916e-01 0.0000000e+00 
-1.4562681e-01 -5.5776042e-01 0.0000000e+00 
-1.1587343e-01 -6.5192336e-01 0.0000000e+00 
-1.6866522e-01 -6.3763440e-01 0.0000000e+00 
-1.3829035e-01 -7.3102260e-01 0.0000000e+00 
-1.9119558e-01 -7.1586800e-01 0.0000000e+00 
REACTION 3 26  float
0.0000000e+00 0.0000000e+00 0.0000000e+00 
0.0000000e+00 0.0000000e+00 0.0000000e+00 
0.0000000e+00 0.0000000e+00 0.0000000e+00 
0.0000000e+00 0.0000000e+00 0.0000000e+00 
0.0000000e+00 0.0000000e+00 0.0000000e+00 
0.0000000e+00 0.0000000e+00 0.0000000e+00 
0.0000000e+00 0.0000000e+00 0.0000000e+00 
0.0000000e+00 0.0000000e+00 0.0000000e+00 
0.0000000e+00 0.0000000e+00 0.0000000e+00 
0.0000000e+00 0.0000000e+00 0.0000000e+00 
0.0000000e+00 0.0000000e+00 0.0000000e+00 
0.0000000e+00 0.0000000e+00 0.0000000e+00 
0.0000000e+00 0.0000000e+00 0.0000000e+00 
0.0000000e+00 0.0000000e+00 0.0000000e+00 
0.0000000e+00 0.0000000e+00 0.0000000e+00 
0.0000000e+00 0.0000000e+00 0.0000000e+00 
0.0000000e+00 0.0000000e+00 0.0000000e+00 
0.0000000e+00 0.0000000e+00 0.0000000e+00 
0.0000000e+00 0.0000000e+00 0.0000000e+00 
0.0000000e+00 0.0000000e+00 0.0000000e+00 
0.0000000e+00 0.0000000e+00 0.0000000e+00 
0.0000000e+00 0.0000000e+00 0.0000000e+00 
0.0000000e+00 0.0000000e+00 0.0000000e+00 
0.0000000e+00 0.0000000e+00 0.0000000e+00 
0.0000000e+00 0.0000000e+00 0.0000000e+00 
0.0000000e+00 0.0000000e+00 0.0000000e+00 
VON_MISES_STRESS 1 26  float
8.0335319e+09
7.8674176e+09
7.7137838e+09
7.3795497e+09
7.0952064e+09
6.7367511e+09
6.4641951e+09
6.0618496e+09
5.7965430e+09
5.3501210e+09
5.0864727e+09
4.5945585e+09
4.3529687e+09
3.8165688e+09
3.5858324e+09
3.0264287e+09
2.8467576e+09
2.3132219e+09
2.1602839e+09
1.6548716e+09
1.5260865e+09
1.0521354e+09
9.4585920e+08
5.4569306e+08
5.2279210e+08
2.0530091e+08
CELL_DATA 24
FIELD FieldData 0
