# vtk DataFile Version 4.0
vtk output
ASCII
DATASET UNSTRUCTURED_GRID
POINTS 26 float
0.0000000e+00 1.0000000e-01 0.0000000e+00 
0.0000000e+00 0.0000000e+00 0.0000000e+00 
1.4766368e-01 1.0000000e-01 0.0000000e+00 
1.4883940e-01 0.0000000e+00 0.0000000e+00 
3.0036214e-01 1.0000000e-01 0.0000000e+00 
3.0422947e-01 0.0000000e+00 0.0000000e+00 
4.6008557e-01 1.0000000e-01 0.0000000e+00 
4.6697357e-01 0.0000000e+00 0.0000000e+00 
6.2771249e-01 1.0000000e-01 0.0000000e+00 
6.3798475e-01 0.0000000e+00 0.0000000e+00 
8.0424988e-01 1.0000000e-01 0.0000000e+00 
8.1830680e-01 0.0000000e+00 0.0000000e+00 
9.9085975e-01 1.0000000e-01 0.0000000e+00 
1.0091403e+00 0.0000000e+00 0.0000000e+00 
1.1816932e+00 1.0000000e-01 0.0000000e+00 
1.1957501e+00 0.0000000e+00 0.0000000e+00 
1.3620152e+00 1.0000000e-01 0.0000000e+00 
1.3722875e+00 0.0000000e+00 0.0000000e+00 
1.5330265e+00 1.0000000e-01 0.0000000e+00 
1.5399145e+00 0.0000000e+00 0.0000000e+00 
1.6957705e+00 1.0000000e-01 0.0000000e+00 
1.6996379e+00 0.0000000e+00 0.0000000e+00 
1.8511606e+00 1.0000000e-01 0.0000000e+00 
1.8523363e+00 0.0000000e+00 0.0000000e+00 
2.0000000e+00 1.0000000e-01 0.0000000e+00 
2.0000000e+00 0.0000000e+00 0.0000000e+00 

CELLS 24 96
3 25 24 23
3 0 1 2
3 1 3 2
3 2 3 4
3 24 22 23
3 23 22 21
3 3 5 4
3 4 5 6
3 22 20 21
3 21 20 19
3 5 7 6
3 6 7 8
3 20 18 19
3 19 18 17
3 7 9 8
3 8 9 10
3 18 16 17
3 17 16 15
3 9 11 10
3 10 11 12
3 16 14 15
3 15 14 13
3 11 13 12
3 12 13 14

CELL_TYPES 24
5
5
5
5
5
5
5
5
5
5
5
5
5
5
5
5
5
5
5
5
5
5
5
5
POINT_DATA 26
FIELD FieldData 3
DISPLACEMENT 3 26  float
0.0000000e+00 0.0000000e+00 0.0000000e+00 
0.0000000e+00 0.0000000e+00 0.0000000e+00 
6.5667494e-03 -1.3324015e-02 0.0000000e+00 
-9.6869878e-03 -1.2000291e-02 0.0000000e+00 
8.6879516e-03 -5.1665299e-02 0.0000000e+00 
-2.2516470e-02 -4.7814645e-02 0.0000000e+00 
2.7393338e-03 -1.1462080e-01 0.0000000e+00 
-4.1972425e-02 -1.0738799e-01 0.0000000e+00 
-1.4359278e-02 -2.0120318e-01 0.0000000e+00 
-7.1129024e-02 -1.9032237e-01 0.0000000e+00 
-4.5068938e-02 -3.1024829e-01 0.0000000e+00 
-1.1252771e-01 -2.9599449e-01 0.0000000e+00 
-9.1188319e-02 -4.4056201e-01 0.0000000e+00 
-1.6806991e-01 -4.2368138e-01 0.0000000e+00 
-1.5130994e-01 -5.8571702e-01 0.0000000e+00 
-2.3308486e-01 -5.6066877e-01 0.0000000e+00 
-2.1857059e-01 -7.3067760e-01 0.0000000e+00 
-3.0317476e-01 -6.9839883e-01 0.0000000e+00 
-2.9006660e-01 -8.7303752e-01 0.0000000e+00 
-3.7605315e-01 -8.3464772e-01 0.0000000e+00 
-3.6350012e-01 -1.0114543e+00 0.0000000e+00 
-4.4988874e-01 -9.6810114e-01 0.0000000e+00 
-4.3713260e-01 -1.1452349e+00 0.0000000e+00 
-5.2326578e-01 -1.0980166e+00 0.0000000e+00 
-5.0967479e-01 -1.2740654e+00 0.0000000e+00 
-5.9569770e-01 -1.2250496e+00 0.0000000e+00 
REACTION 3 26  float
0.0000000e+00 0.0000000e+00 0.0000000e+00 
0.0000000e+00 0.0000000e+00 0.0000000e+00 
0.0000000e+00 0.0000000e+00 0.0000000e+00 
0.0000000e+00 0.0000000e+00 0.0000000e+00 
0.0000000e+00 0.0000000e+00 0.0000000e+00 
0.0000000e+00 0.0000000e+00 0.0000000e+00 
0.0000000e+00 0.0000000e+00 0.0000000e+00 
0.0000000e+00 0.0000000e+00 0.0000000e+00 
0.0000000e+00 0.0000000e+00 0.0000000e+00 
0.0000000e+00 0.0000000e+00 0.0000000e+00 
0.0000000e+00 0.0000000e+00 0.0000000e+00 
0.0000000e+00 0.0000000e+00 0.0000000e+00 
0.0000000e+00 0.0000000e+00 0.0000000e+00 
0.0000000e+00 0.0000000e+00 0.0000000e+00 
0.0000000e+00 0.0000000e+00 0.0000000e+00 
0.0000000e+00 0.0000000e+00 0.0000000e+00 
0.0000000e+00 0.0000000e+00 0.0000000e+00 
0.0000000e+00 0.0000000e+00 0.0000000e+00 
0.0000000e+00 0.0000000e+00 0.0000000e+00 
0.0000000e+00 0.0000000e+00 0.0000000e+00 
0.0000000e+00 0.0000000e+00 0.0000000e+00 
0.0000000e+00 0.0000000e+00 0.0000000e+00 
0.0000000e+00 0.0000000e+00 0.0000000e+00 
0.0000000e+00 0.0000000e+00 0.0000000e+00 
0.0000000e+00 0.0000000e+00 0.0000000e+00 
0.0000000e+00 0.0000000e+00 0.0000000e+00 
VON_MISES_STRESS 1 26  float
1.6015499e+10
1.5830096e+10
1.5404930e+10
1.4662622e+10
1.3862155e+10
1.2987252e+10
1.2305970e+10
1.1321418e+10
1.0743516e+10
9.6780657e+09
9.1851377e+09
8.0604820e+09
7.6802662e+09
6.5247002e+09
6.2241275e+09
5.0690601e+09
4.9017774e+09
3.8298463e+09
3.7376292e+09
2.7380342e+09
2.7042120e+09
1.7635002e+09
1.7731980e+09
8.9662394e+08
9.2705754e+08
5.8835268e+07
CELL_DATA 24
FIELD FieldData 0
