# vtk DataFile Version 4.0
vtk output
ASCII
DATASET UNSTRUCTURED_GRID
POINTS 26 float
0.0000000e+00 1.0000000e-01 0.0000000e+00 
0.0000000e+00 0.0000000e+00 0.0000000e+00 
1.4766368e-01 1.0000000e-01 0.0000000e+00 
1.4883940e-01 0.0000000e+00 0.0000000e+00 
3.0036214e-01 1.0000000e-01 0.0000000e+00 
3.0422947e-01 0.0000000e+00 0.0000000e+00 
4.6008557e-01 1.0000000e-01 0.0000000e+00 
4.6697357e-01 0.0000000e+00 0.0000000e+00 
6.2771249e-01 1.0000000e-01 0.0000000e+00 
6.3798475e-01 0.0000000e+00 0.0000000e+00 
8.0424988e-01 1.0000000e-01 0.0000000e+00 
8.1830680e-01 0.0000000e+00 0.0000000e+00 
9.9085975e-01 1.0000000e-01 0.0000000e+00 
1.0091403e+00 0.0000000e+00 0.0000000e+00 
1.1816932e+00 1.0000000e-01 0.0000000e+00 
1.1957501e+00 0.0000000e+00 0.0000000e+00 
1.3620152e+00 1.0000000e-01 0.0000000e+00 
1.3722875e+00 0.0000000e+00 0.0000000e+00 
1.5330265e+00 1.0000000e-01 0.0000000e+00 
1.5399145e+00 0.0000000e+00 0.0000000e+00 
1.6957705e+00 1.0000000e-01 0.0000000e+00 
1.6996379e+00 0.0000000e+00 0.0000000e+00 
1.8511606e+00 1.0000000e-01 0.0000000e+00 
1.8523363e+00 0.0000000e+00 0.0000000e+00 
2.0000000e+00 1.0000000e-01 0.0000000e+00 
2.0000000e+00 0.0000000e+00 0.0000000e+00 

CELLS 24 96
3 25 24 23
3 0 1 2
3 1 3 2
3 2 3 4
3 24 22 23
3 23 22 21
3 3 5 4
3 4 5 6
3 22 20 21
3 21 20 19
3 5 7 6
3 6 7 8
3 20 18 19
3 19 18 17
3 7 9 8
3 8 9 10
3 18 16 17
3 17 16 15
3 9 11 10
3 10 11 12
3 16 14 15
3 15 14 13
3 11 13 12
3 12 13 14

CELL_TYPES 24
5
5
5
5
5
5
5
5
5
5
5
5
5
5
5
5
5
5
5
5
5
5
5
5
POINT_DATA 26
FIELD FieldData 3
DISPLACEMENT 3 26  float
0.0000000e+00 0.0000000e+00 0.0000000e+00 
0.0000000e+00 0.0000000e+00 0.0000000e+00 
5.3915083e-03 -1.0303906e-02 0.0000000e+00 
-7.3341001e-03 -9.5434040e-03 0.0000000e+00 
8.0055892e-03 -4.0196743e-02 0.0000000e+00 
-1.6638916e-02 -3.8034771e-02 0.0000000e+00 
5.5473004e-03 -8.9902215e-02 0.0000000e+00 
-3.0162871e-02 -8.5888945e-02 0.0000000e+00 
-4.1201538e-03 -1.5930595e-01 0.0000000e+00 
-4.9997211e-02 -1.5333468e-01 0.0000000e+00 
-2.2854021e-02 -2.4813135e-01 0.0000000e+00 
-7.7982388e-02 -2.4043673e-01 0.0000000e+00 
-5.2148499e-02 -3.5597640e-01 0.0000000e+00 
-1.1558998e-01 -3.4711307e-01 0.0000000e+00 
-9.1339305e-02 -4.7784457e-01 0.0000000e+00 
-1.5980999e-01 -4.6296880e-01 0.0000000e+00 
-1.3604346e-01 -6.0102475e-01 0.0000000e+00 
-2.0776464e-01 -5.8064562e-01 0.0000000e+00 
-1.8421498e-01 -7.2310549e-01 0.0000000e+00 
-2.5784376e-01 -6.9795650e-01 0.0000000e+00 
-2.3415010e-01 -8.4257150e-01 0.0000000e+00 
-3.0869949e-01 -8.1347799e-01 0.0000000e+00 
-2.8450647e-01 -9.5850271e-01 0.0000000e+00 
-3.5925162e-01 -9.2630064e-01 0.0000000e+00 
-3.3425963e-01 -1.0703586e+00 0.0000000e+00 
-4.0902373e-01 -1.0367544e+00 0.0000000e+00 
REACTION 3 26  float
0.0000000e+00 0.0000000e+00 0.0000000e+00 
0.0000000e+00 0.0000000e+00 0.0000000e+00 
0.0000000e+00 0.0000000e+00 0.0000000e+00 
0.0000000e+00 0.0000000e+00 0.0000000e+00 
0.0000000e+00 0.0000000e+00 0.0000000e+00 
0.0000000e+00 0.0000000e+00 0.0000000e+00 
0.0000000e+00 0.0000000e+00 0.0000000e+00 
0.0000000e+00 0.0000000e+00 0.0000000e+00 
0.0000000e+00 0.0000000e+00 0.0000000e+00 
0.0000000e+00 0.0000000e+00 0.0000000e+00 
0.0000000e+00 0.0000000e+00 0.0000000e+00 
0.0000000e+00 0.0000000e+00 0.0000000e+00 
0.0000000e+00 0.0000000e+00 0.0000000e+00 
0.0000000e+00 0.0000000e+00 0.0000000e+00 
0.0000000e+00 0.0000000e+00 0.0000000e+00 
0.0000000e+00 0.0000000e+00 0.0000000e+00 
0.0000000e+00 0.0000000e+00 0.0000000e+00 
0.0000000e+00 0.0000000e+00 0.0000000e+00 
0.0000000e+00 0.0000000e+00 0.0000000e+00 
0.0000000e+00 0.0000000e+00 0.0000000e+00 
0.0000000e+00 0.0000000e+00 0.0000000e+00 
0.0000000e+00 0.0000000e+00 0.0000000e+00 
0.0000000e+00 0.0000000e+00 0.0000000e+00 
0.0000000e+00 0.0000000e+00 0.0000000e+00 
0.0000000e+00 0.0000000e+00 0.0000000e+00 
0.0000000e+00 0.0000000e+00 0.0000000e+00 
VON_MISES_STRESS 1 26  float
1.2551124e+10
1.2369470e+10
1.2079798e+10
1.1543492e+10
1.1000528e+10
1.0389848e+10
9.9027374e+09
9.2106127e+09
8.7704115e+09
8.0075192e+09
7.6035052e+09
6.7775852e+09
6.4372603e+09
5.5614136e+09
5.2629320e+09
4.3673139e+09
4.1632351e+09
3.3193674e+09
3.1672445e+09
2.3725650e+09
2.2632133e+09
1.5137852e+09
1.4385494e+09
7.7354413e+08
7.7164378e+08
1.7394429e+08
CELL_DATA 24
FIELD FieldData 0
