# vtk DataFile Version 4.0
vtk output
ASCII
DATASET UNSTRUCTURED_GRID
POINTS 26 float
0.0000000e+00 1.0000000e-01 0.0000000e+00 
0.0000000e+00 0.0000000e+00 0.0000000e+00 
1.4766368e-01 1.0000000e-01 0.0000000e+00 
1.4883940e-01 0.0000000e+00 0.0000000e+00 
3.0036214e-01 1.0000000e-01 0.0000000e+00 
3.0422947e-01 0.0000000e+00 0.0000000e+00 
4.6008557e-01 1.0000000e-01 0.0000000e+00 
4.6697357e-01 0.0000000e+00 0.0000000e+00 
6.2771249e-01 1.0000000e-01 0.0000000e+00 
6.3798475e-01 0.0000000e+00 0.0000000e+00 
8.0424988e-01 1.0000000e-01 0.0000000e+00 
8.1830680e-01 0.0000000e+00 0.0000000e+00 
9.9085975e-01 1.0000000e-01 0.0000000e+00 
1.0091403e+00 0.0000000e+00 0.0000000e+00 
1.1816932e+00 1.0000000e-01 0.0000000e+00 
1.1957501e+00 0.0000000e+00 0.0000000e+00 
1.3620152e+00 1.0000000e-01 0.0000000e+00 
1.3722875e+00 0.0000000e+00 0.0000000e+00 
1.5330265e+00 1.0000000e-01 0.0000000e+00 
1.5399145e+00 0.0000000e+00 0.0000000e+00 
1.6957705e+00 1.0000000e-01 0.0000000e+00 
1.6996379e+00 0.0000000e+00 0.0000000e+00 
1.8511606e+00 1.0000000e-01 0.0000000e+00 
1.8523363e+00 0.0000000e+00 0.0000000e+00 
2.0000000e+00 1.0000000e-01 0.0000000e+00 
2.0000000e+00 0.0000000e+00 0.0000000e+00 

CELLS 24 96
3 25 24 23
3 0 1 2
3 1 3 2
3 2 3 4
3 24 22 23
3 23 22 21
3 3 5 4
3 4 5 6
3 22 20 21
3 21 20 19
3 5 7 6
3 6 7 8
3 20 18 19
3 19 18 17
3 7 9 8
3 8 9 10
3 18 16 17
3 17 16 15
3 9 11 10
3 10 11 12
3 16 14 15
3 15 14 13
3 11 13 12
3 12 13 14

CELL_TYPES 24
5
5
5
5
5
5
5
5
5
5
5
5
5
5
5
5
5
5
5
5
5
5
5
5
POINT_DATA 26
FIELD FieldData 3
DISPLACEMENT 3 26  float
0.0000000e+00 0.0000000e+00 0.0000000e+00 
0.0000000e+00 0.0000000e+00 0.0000000e+00 
1.0163023e-03 -1.6696050e-03 0.0000000e+00 
-1.0926852e-03 -1.6847991e-03 0.0000000e+00 
1.9038132e-03 -6.5354155e-03 0.0000000e+00 
-2.2148674e-03 -6.6250809e-03 0.0000000e+00 
2.6167009e-03 -1.4754563e-02 0.0000000e+00 
-3.4283858e-03 -1.5005840e-02 0.0000000e+00 
3.0796456e-03 -2.6495989e-02 0.0000000e+00 
-4.7906940e-03 -2.7014112e-02 0.0000000e+00 
3.2167172e-03 -4.1922681e-02 0.0000000e+00 
-6.3528721e-03 -4.2829357e-02 0.0000000e+00 
2.9554029e-03 -6.1174456e-02 0.0000000e+00 
-8.1528770e-03 -6.2600978e-02 0.0000000e+00 
2.3024157e-03 -8.3496802e-02 0.0000000e+00 
-1.0037234e-02 -8.4485754e-02 0.0000000e+00 
1.3195379e-03 -1.0658316e-01 0.0000000e+00 
-1.1947368e-02 -1.0708541e-01 0.0000000e+00 
8.7408233e-05 -1.2988071e-01 0.0000000e+00 
-1.3839600e-02 -1.2989035e-01 0.0000000e+00 
-1.3188638e-03 -1.5297969e-01 0.0000000e+00 
-1.5675640e-02 -1.5252244e-01 0.0000000e+00 
-2.8352840e-03 -1.7558354e-01 0.0000000e+00 
-1.7424006e-02 -1.7470495e-01 0.0000000e+00 
-4.4110548e-03 -1.9748241e-01 0.0000000e+00 
-1.9060165e-02 -1.9639915e-01 0.0000000e+00 
REACTION 3 26  float
0.0000000e+00 0.0000000e+00 0.0000000e+00 
0.0000000e+00 0.0000000e+00 0.0000000e+00 
0.0000000e+00 0.0000000e+00 0.0000000e+00 
0.0000000e+00 0.0000000e+00 0.0000000e+00 
0.0000000e+00 0.0000000e+00 0.0000000e+00 
0.0000000e+00 0.0000000e+00 0.0000000e+00 
0.0000000e+00 0.0000000e+00 0.0000000e+00 
0.0000000e+00 0.0000000e+00 0.0000000e+00 
0.0000000e+00 0.0000000e+00 0.0000000e+00 
0.0000000e+00 0.0000000e+00 0.0000000e+00 
0.0000000e+00 0.0000000e+00 0.0000000e+00 
0.0000000e+00 0.0000000e+00 0.0000000e+00 
0.0000000e+00 0.0000000e+00 0.0000000e+00 
0.0000000e+00 0.0000000e+00 0.0000000e+00 
0.0000000e+00 0.0000000e+00 0.0000000e+00 
0.0000000e+00 0.0000000e+00 0.0000000e+00 
0.0000000e+00 0.0000000e+00 0.0000000e+00 
0.0000000e+00 0.0000000e+00 0.0000000e+00 
0.0000000e+00 0.0000000e+00 0.0000000e+00 
0.0000000e+00 0.0000000e+00 0.0000000e+00 
0.0000000e+00 0.0000000e+00 0.0000000e+00 
0.0000000e+00 0.0000000e+00 0.0000000e+00 
0.0000000e+00 0.0000000e+00 0.0000000e+00 
0.0000000e+00 0.0000000e+00 0.0000000e+00 
0.0000000e+00 0.0000000e+00 0.0000000e+00 
0.0000000e+00 0.0000000e+00 0.0000000e+00 
VON_MISES_STRESS 1 26  float
2.1059996e+09
2.0378198e+09
2.0063668e+09
1.9110053e+09
1.8540251e+09
1.7595078e+09
1.6994642e+09
1.5974607e+09
1.5334221e+09
1.4226822e+09
1.3534236e+09
1.2323060e+09
1.1637070e+09
1.0306337e+09
9.6075635e+08
8.2149158e+08
7.6216691e+08
6.2946118e+08
5.7518874e+08
4.5023414e+08
4.0131677e+08
2.8637354e+08
2.4428059e+08
1.5265755e+08
1.4051595e+08
7.8915040e+07
CELL_DATA 24
FIELD FieldData 0
