# vtk DataFile Version 4.0
vtk output
ASCII
DATASET UNSTRUCTURED_GRID
POINTS 26 float
0.0000000e+00 1.0000000e-01 0.0000000e+00 
0.0000000e+00 0.0000000e+00 0.0000000e+00 
1.4766368e-01 1.0000000e-01 0.0000000e+00 
1.4883940e-01 0.0000000e+00 0.0000000e+00 
3.0036214e-01 1.0000000e-01 0.0000000e+00 
3.0422947e-01 0.0000000e+00 0.0000000e+00 
4.6008557e-01 1.0000000e-01 0.0000000e+00 
4.6697357e-01 0.0000000e+00 0.0000000e+00 
6.2771249e-01 1.0000000e-01 0.0000000e+00 
6.3798475e-01 0.0000000e+00 0.0000000e+00 
8.0424988e-01 1.0000000e-01 0.0000000e+00 
8.1830680e-01 0.0000000e+00 0.0000000e+00 
9.9085975e-01 1.0000000e-01 0.0000000e+00 
1.0091403e+00 0.0000000e+00 0.0000000e+00 
1.1816932e+00 1.0000000e-01 0.0000000e+00 
1.1957501e+00 0.0000000e+00 0.0000000e+00 
1.3620152e+00 1.0000000e-01 0.0000000e+00 
1.3722875e+00 0.0000000e+00 0.0000000e+00 
1.5330265e+00 1.0000000e-01 0.0000000e+00 
1.5399145e+00 0.0000000e+00 0.0000000e+00 
1.6957705e+00 1.0000000e-01 0.0000000e+00 
1.6996379e+00 0.0000000e+00 0.0000000e+00 
1.8511606e+00 1.0000000e-01 0.0000000e+00 
1.8523363e+00 0.0000000e+00 0.0000000e+00 
2.0000000e+00 1.0000000e-01 0.0000000e+00 
2.0000000e+00 0.0000000e+00 0.0000000e+00 

CELLS 24 96
3 25 24 23
3 0 1 2
3 1 3 2
3 2 3 4
3 24 22 23
3 23 22 21
3 3 5 4
3 4 5 6
3 22 20 21
3 21 20 19
3 5 7 6
3 6 7 8
3 20 18 19
3 19 18 17
3 7 9 8
3 8 9 10
3 18 16 17
3 17 16 15
3 9 11 10
3 10 11 12
3 16 14 15
3 15 14 13
3 11 13 12
3 12 13 14

CELL_TYPES 24
5
5
5
5
5
5
5
5
5
5
5
5
5
5
5
5
5
5
5
5
5
5
5
5
POINT_DATA 26
FIELD FieldData 3
DISPLACEMENT 3 26  float
0.0000000e+00 0.0000000e+00 0.0000000e+00 
0.0000000e+00 0.0000000e+00 0.0000000e+00 
7.4059074e-03 -1.5834490e-02 0.0000000e+00 
-1.1685463e-02 -1.3950923e-02 0.0000000e+00 
8.7299543e-03 -6.0985073e-02 0.0000000e+00 
-2.7584536e-02 -5.5476625e-02 0.0000000e+00 
-8.1162737e-04 -1.3417642e-01 0.0000000e+00 
-5.2259367e-02 -1.2386615e-01 0.0000000e+00 
-2.4940062e-02 -2.3338158e-01 0.0000000e+00 
-8.9513041e-02 -2.1794781e-01 0.0000000e+00 
-6.6368639e-02 -3.5649329e-01 0.0000000e+00 
-1.4228259e-01 -3.3633524e-01 0.0000000e+00 
-1.2687287e-01 -5.0157470e-01 0.0000000e+00 
-2.1260473e-01 -4.7766721e-01 0.0000000e+00 
-2.0421731e-01 -6.6120529e-01 0.0000000e+00 
-2.9430059e-01 -6.2768072e-01 0.0000000e+00 
-2.8947246e-01 -8.1904936e-01 0.0000000e+00 
-3.8174084e-01 -7.7720910e-01 0.0000000e+00 
-3.7915763e-01 -9.7293246e-01 0.0000000e+00 
-4.7218698e-01 -9.2417514e-01 0.0000000e+00 
-4.7064030e-01 -1.1218009e+00 0.0000000e+00 
-5.6353486e-01 -1.0674735e+00 0.0000000e+00 
-5.6200272e-01 -1.2652360e+00 0.0000000e+00 
-6.5421492e-01 -1.2065756e+00 0.0000000e+00 
-6.5186250e-01 -1.4031625e+00 0.0000000e+00 
-7.4384779e-01 -1.3424025e+00 0.0000000e+00 
REACTION 3 26  float
0.0000000e+00 0.0000000e+00 0.0000000e+00 
0.0000000e+00 0.0000000e+00 0.0000000e+00 
0.0000000e+00 0.0000000e+00 0.0000000e+00 
0.0000000e+00 0.0000000e+00 0.0000000e+00 
0.0000000e+00 0.0000000e+00 0.0000000e+00 
0.0000000e+00 0.0000000e+00 0.0000000e+00 
0.0000000e+00 0.0000000e+00 0.0000000e+00 
0.0000000e+00 0.0000000e+00 0.0000000e+00 
0.0000000e+00 0.0000000e+00 0.0000000e+00 
0.0000000e+00 0.0000000e+00 0.0000000e+00 
0.0000000e+00 0.0000000e+00 0.0000000e+00 
0.0000000e+00 0.0000000e+00 0.0000000e+00 
0.0000000e+00 0.0000000e+00 0.0000000e+00 
0.0000000e+00 0.0000000e+00 0.0000000e+00 
0.0000000e+00 0.0000000e+00 0.0000000e+00 
0.0000000e+00 0.0000000e+00 0.0000000e+00 
0.0000000e+00 0.0000000e+00 0.0000000e+00 
0.0000000e+00 0.0000000e+00 0.0000000e+00 
0.0000000e+00 0.0000000e+00 0.0000000e+00 
0.0000000e+00 0.0000000e+00 0.0000000e+00 
0.0000000e+00 0.0000000e+00 0.0000000e+00 
0.0000000e+00 0.0000000e+00 0.0000000e+00 
0.0000000e+00 0.0000000e+00 0.0000000e+00 
0.0000000e+00 0.0000000e+00 0.0000000e+00 
0.0000000e+00 0.0000000e+00 0.0000000e+00 
0.0000000e+00 0.0000000e+00 0.0000000e+00 
VON_MISES_STRESS 1 26  float
1.8821693e+10
1.8625016e+10
1.8067634e+10
1.7105453e+10
1.6056925e+10
1.4903658e+10
1.4051619e+10
1.2771801e+10
1.2089577e+10
1.0733697e+10
1.0191580e+10
8.7962276e+09
8.4167496e+09
7.0245571e+09
6.7628119e+09
5.4005540e+09
5.3048868e+09
4.0591629e+09
4.0580024e+09
2.9090260e+09
2.9784671e+09
1.9060539e+09
2.0260470e+09
1.0351921e+09
1.1274323e+09
9.5240624e+07
CELL_DATA 24
FIELD FieldData 0
