# vtk DataFile Version 4.0
vtk output
ASCII
DATASET UNSTRUCTURED_GRID
POINTS 26 float
0.0000000e+00 1.0000000e-01 0.0000000e+00 
0.0000000e+00 0.0000000e+00 0.0000000e+00 
1.4766368e-01 1.0000000e-01 0.0000000e+00 
1.4883940e-01 0.0000000e+00 0.0000000e+00 
3.0036214e-01 1.0000000e-01 0.0000000e+00 
3.0422947e-01 0.0000000e+00 0.0000000e+00 
4.6008557e-01 1.0000000e-01 0.0000000e+00 
4.6697357e-01 0.0000000e+00 0.0000000e+00 
6.2771249e-01 1.0000000e-01 0.0000000e+00 
6.3798475e-01 0.0000000e+00 0.0000000e+00 
8.0424988e-01 1.0000000e-01 0.0000000e+00 
8.1830680e-01 0.0000000e+00 0.0000000e+00 
9.9085975e-01 1.0000000e-01 0.0000000e+00 
1.0091403e+00 0.0000000e+00 0.0000000e+00 
1.1816932e+00 1.0000000e-01 0.0000000e+00 
1.1957501e+00 0.0000000e+00 0.0000000e+00 
1.3620152e+00 1.0000000e-01 0.0000000e+00 
1.3722875e+00 0.0000000e+00 0.0000000e+00 
1.5330265e+00 1.0000000e-01 0.0000000e+00 
1.5399145e+00 0.0000000e+00 0.0000000e+00 
1.6957705e+00 1.0000000e-01 0.0000000e+00 
1.6996379e+00 0.0000000e+00 0.0000000e+00 
1.8511606e+00 1.0000000e-01 0.0000000e+00 
1.8523363e+00 0.0000000e+00 0.0000000e+00 
2.0000000e+00 1.0000000e-01 0.0000000e+00 
2.0000000e+00 0.0000000e+00 0.0000000e+00 

CELLS 24 96
3 25 24 23
3 0 1 2
3 1 3 2
3 2 3 4
3 24 22 23
3 23 22 21
3 3 5 4
3 4 5 6
3 22 20 21
3 21 20 19
3 5 7 6
3 6 7 8
3 20 18 19
3 19 18 17
3 7 9 8
3 8 9 10
3 18 16 17
3 17 16 15
3 9 11 10
3 10 11 12
3 16 14 15
3 15 14 13
3 11 13 12
3 12 13 14

CELL_TYPES 24
5
5
5
5
5
5
5
5
5
5
5
5
5
5
5
5
5
5
5
5
5
5
5
5
POINT_DATA 26
FIELD FieldData 3
DISPLACEMENT 3 26  float
0.0000000e+00 0.0000000e+00 0.0000000e+00 
0.0000000e+00 0.0000000e+00 0.0000000e+00 
6.2870504e-03 -1.2560847e-02 0.0000000e+00 
-9.0865586e-03 -1.1391511e-02 0.0000000e+00 
8.5826823e-03 -4.8791617e-02 0.0000000e+00 
-2.1004789e-02 -4.5402393e-02 0.0000000e+00 
3.6103725e-03 -1.0848999e-01 0.0000000e+00 
-3.8916383e-02 -1.0212915e-01 0.0000000e+00 
-1.1483204e-02 -1.9093062e-01 0.0000000e+00 
-6.5653227e-02 -1.8136579e-01 0.0000000e+00 
-3.9032523e-02 -2.9520467e-01 0.0000000e+00 
-1.0359845e-01 -2.8269103e-01 0.0000000e+00 
-8.0791190e-02 -4.2033556e-01 0.0000000e+00 
-1.5456973e-01 -4.0556270e-01 0.0000000e+00 
-1.3556854e-01 -5.6023818e-01 0.0000000e+00 
-2.1433708e-01 -5.3780746e-01 0.0000000e+00 
-1.9713968e-01 -7.0038420e-01 0.0000000e+00 
-2.7888948e-01 -6.7112070e-01 0.0000000e+00 
-2.6280531e-01 -8.3833420e-01 0.0000000e+00 
-3.4610099e-01 -8.0326283e-01 0.0000000e+00 
-3.3040056e-01 -9.7267997e-01 0.0000000e+00 
-4.1424856e-01 -9.3287408e-01 0.0000000e+00 
-3.9826992e-01 -1.1026566e+00 0.0000000e+00 
-4.8198694e-01 -1.0591570e+00 0.0000000e+00 
-4.6517593e-01 -1.2278833e+00 0.0000000e+00 
-5.4881769e-01 -1.1826830e+00 0.0000000e+00 
REACTION 3 26  float
0.0000000e+00 0.0000000e+00 0.0000000e+00 
0.0000000e+00 0.0000000e+00 0.0000000e+00 
0.0000000e+00 0.0000000e+00 0.0000000e+00 
0.0000000e+00 0.0000000e+00 0.0000000e+00 
0.0000000e+00 0.0000000e+00 0.0000000e+00 
0.0000000e+00 0.0000000e+00 0.0000000e+00 
0.0000000e+00 0.0000000e+00 0.0000000e+00 
0.0000000e+00 0.0000000e+00 0.0000000e+00 
0.0000000e+00 0.0000000e+00 0.0000000e+00 
0.0000000e+00 0.0000000e+00 0.0000000e+00 
0.0000000e+00 0.0000000e+00 0.0000000e+00 
0.0000000e+00 0.0000000e+00 0.0000000e+00 
0.0000000e+00 0.0000000e+00 0.0000000e+00 
0.0000000e+00 0.0000000e+00 0.0000000e+00 
0.0000000e+00 0.0000000e+00 0.0000000e+00 
0.0000000e+00 0.0000000e+00 0.0000000e+00 
0.0000000e+00 0.0000000e+00 0.0000000e+00 
0.0000000e+00 0.0000000e+00 0.0000000e+00 
0.0000000e+00 0.0000000e+00 0.0000000e+00 
0.0000000e+00 0.0000000e+00 0.0000000e+00 
0.0000000e+00 0.0000000e+00 0.0000000e+00 
0.0000000e+00 0.0000000e+00 0.0000000e+00 
0.0000000e+00 0.0000000e+00 0.0000000e+00 
0.0000000e+00 0.0000000e+00 0.0000000e+00 
0.0000000e+00 0.0000000e+00 0.0000000e+00 
0.0000000e+00 0.0000000e+00 0.0000000e+00 
VON_MISES_STRESS 1 26  float
1.5149364e+10
1.4965401e+10
1.4576880e+10
1.3891996e+10
1.3160943e+10
1.2359583e+10
1.1728899e+10
1.0824475e+10
1.0280570e+10
9.2964045e+09
8.8233011e+09
7.7770614e+09
7.4030336e+09
6.3188465e+09
6.0139489e+09
4.9235389e+09
4.7419218e+09
3.7257708e+09
3.6132621e+09
2.6629837e+09
2.6049510e+09
1.7095808e+09
1.6927137e+09
8.6962688e+08
8.9103411e+08
9.5388440e+07
CELL_DATA 24
FIELD FieldData 0
