# vtk DataFile Version 4.0
vtk output
ASCII
DATASET UNSTRUCTURED_GRID
POINTS 26 float
0.0000000e+00 1.0000000e-01 0.0000000e+00 
0.0000000e+00 0.0000000e+00 0.0000000e+00 
1.4766368e-01 1.0000000e-01 0.0000000e+00 
1.4883940e-01 0.0000000e+00 0.0000000e+00 
3.0036214e-01 1.0000000e-01 0.0000000e+00 
3.0422947e-01 0.0000000e+00 0.0000000e+00 
4.6008557e-01 1.0000000e-01 0.0000000e+00 
4.6697357e-01 0.0000000e+00 0.0000000e+00 
6.2771249e-01 1.0000000e-01 0.0000000e+00 
6.3798475e-01 0.0000000e+00 0.0000000e+00 
8.0424988e-01 1.0000000e-01 0.0000000e+00 
8.1830680e-01 0.0000000e+00 0.0000000e+00 
9.9085975e-01 1.0000000e-01 0.0000000e+00 
1.0091403e+00 0.0000000e+00 0.0000000e+00 
1.1816932e+00 1.0000000e-01 0.0000000e+00 
1.1957501e+00 0.0000000e+00 0.0000000e+00 
1.3620152e+00 1.0000000e-01 0.0000000e+00 
1.3722875e+00 0.0000000e+00 0.0000000e+00 
1.5330265e+00 1.0000000e-01 0.0000000e+00 
1.5399145e+00 0.0000000e+00 0.0000000e+00 
1.6957705e+00 1.0000000e-01 0.0000000e+00 
1.6996379e+00 0.0000000e+00 0.0000000e+00 
1.8511606e+00 1.0000000e-01 0.0000000e+00 
1.8523363e+00 0.0000000e+00 0.0000000e+00 
2.0000000e+00 1.0000000e-01 0.0000000e+00 
2.0000000e+00 0.0000000e+00 0.0000000e+00 

CELLS 24 96
3 25 24 23
3 0 1 2
3 1 3 2
3 2 3 4
3 24 22 23
3 23 22 21
3 3 5 4
3 4 5 6
3 22 20 21
3 21 20 19
3 5 7 6
3 6 7 8
3 20 18 19
3 19 18 17
3 7 9 8
3 8 9 10
3 18 16 17
3 17 16 15
3 9 11 10
3 10 11 12
3 16 14 15
3 15 14 13
3 11 13 12
3 12 13 14

CELL_TYPES 24
5
5
5
5
5
5
5
5
5
5
5
5
5
5
5
5
5
5
5
5
5
5
5
5
POINT_DATA 26
FIELD FieldData 3
DISPLACEMENT 3 26  float
0.0000000e+00 0.0000000e+00 0.0000000e+00 
0.0000000e+00 0.0000000e+00 0.0000000e+00 
5.1254854e-03 -9.6793156e-03 0.0000000e+00 
-6.8560350e-03 -9.0185218e-03 0.0000000e+00 
7.7737444e-03 -3.7795670e-02 0.0000000e+00 
-1.5463213e-02 -3.5933394e-02 0.0000000e+00 
5.9032463e-03 -8.4648974e-02 0.0000000e+00 
-2.7832409e-02 -8.1214160e-02 0.0000000e+00 
-2.4205637e-03 -1.5024950e-01 0.0000000e+00 
-4.5850161e-02 -1.4517352e-01 0.0000000e+00 
-1.8903567e-02 -2.3445836e-01 0.0000000e+00 
-7.1193963e-02 -2.2797728e-01 0.0000000e+00 
-4.4940535e-02 -3.3700702e-01 0.0000000e+00 
-1.0521924e-01 -3.2964528e-01 0.0000000e+00 
-7.9981230e-02 -4.5321357e-01 0.0000000e+00 
-1.4522614e-01 -4.4031817e-01 0.0000000e+00 
-1.2012648e-01 -5.7095194e-01 0.0000000e+00 
-1.8863909e-01 -5.5295187e-01 0.0000000e+00 
-1.6351724e-01 -6.8785429e-01 0.0000000e+00 
-2.3399636e-01 -6.6540247e-01 0.0000000e+00 
-2.0859013e-01 -8.0240303e-01 0.0000000e+00 
-2.8006443e-01 -7.7625138e-01 0.0000000e+00 
-2.5410399e-01 -9.1365457e-01 0.0000000e+00 
-3.2584849e-01 -8.8457507e-01 0.0000000e+00 
-2.9910663e-01 -1.0210381e+00 0.0000000e+00 
-3.7089232e-01 -9.9064207e-01 0.0000000e+00 
REACTION 3 26  float
0.0000000e+00 0.0000000e+00 0.0000000e+00 
0.0000000e+00 0.0000000e+00 0.0000000e+00 
0.0000000e+00 0.0000000e+00 0.0000000e+00 
0.0000000e+00 0.0000000e+00 0.0000000e+00 
0.0000000e+00 0.0000000e+00 0.0000000e+00 
0.0000000e+00 0.0000000e+00 0.0000000e+00 
0.0000000e+00 0.0000000e+00 0.0000000e+00 
0.0000000e+00 0.0000000e+00 0.0000000e+00 
0.0000000e+00 0.0000000e+00 0.0000000e+00 
0.0000000e+00 0.0000000e+00 0.0000000e+00 
0.0000000e+00 0.0000000e+00 0.0000000e+00 
0.0000000e+00 0.0000000e+00 0.0000000e+00 
0.0000000e+00 0.0000000e+00 0.0000000e+00 
0.0000000e+00 0.0000000e+00 0.0000000e+00 
0.0000000e+00 0.0000000e+00 0.0000000e+00 
0.0000000e+00 0.0000000e+00 0.0000000e+00 
0.0000000e+00 0.0000000e+00 0.0000000e+00 
0.0000000e+00 0.0000000e+00 0.0000000e+00 
0.0000000e+00 0.0000000e+00 0.0000000e+00 
0.0000000e+00 0.0000000e+00 0.0000000e+00 
0.0000000e+00 0.0000000e+00 0.0000000e+00 
0.0000000e+00 0.0000000e+00 0.0000000e+00 
0.0000000e+00 0.0000000e+00 0.0000000e+00 
0.0000000e+00 0.0000000e+00 0.0000000e+00 
0.0000000e+00 0.0000000e+00 0.0000000e+00 
0.0000000e+00 0.0000000e+00 0.0000000e+00 
VON_MISES_STRESS 1 26  float
1.1822264e+10
1.1641454e+10
1.1376669e+10
1.0876784e+10
1.0381258e+10
9.8170655e+09
9.3677271e+09
8.7283579e+09
8.3171917e+09
7.6106988e+09
7.2280550e+09
6.4600161e+09
6.1326561e+09
5.3135703e+09
5.0216233e+09
4.1806546e+09
3.9754465e+09
3.1809935e+09
3.0232154e+09
2.2739397e+09
2.1557325e+09
1.4493708e+09
1.3633468e+09
7.4205050e+08
7.3496109e+08
1.8776067e+08
CELL_DATA 24
FIELD FieldData 0
