# vtk DataFile Version 4.0
vtk output
ASCII
DATASET UNSTRUCTURED_GRID
POINTS 26 float
0.0000000e+00 1.0000000e-01 0.0000000e+00 
0.0000000e+00 0.0000000e+00 0.0000000e+00 
1.4766368e-01 1.0000000e-01 0.0000000e+00 
1.4883940e-01 0.0000000e+00 0.0000000e+00 
3.0036214e-01 1.0000000e-01 0.0000000e+00 
3.0422947e-01 0.0000000e+00 0.0000000e+00 
4.6008557e-01 1.0000000e-01 0.0000000e+00 
4.6697357e-01 0.0000000e+00 0.0000000e+00 
6.2771249e-01 1.0000000e-01 0.0000000e+00 
6.3798475e-01 0.0000000e+00 0.0000000e+00 
8.0424988e-01 1.0000000e-01 0.0000000e+00 
8.1830680e-01 0.0000000e+00 0.0000000e+00 
9.9085975e-01 1.0000000e-01 0.0000000e+00 
1.0091403e+00 0.0000000e+00 0.0000000e+00 
1.1816932e+00 1.0000000e-01 0.0000000e+00 
1.1957501e+00 0.0000000e+00 0.0000000e+00 
1.3620152e+00 1.0000000e-01 0.0000000e+00 
1.3722875e+00 0.0000000e+00 0.0000000e+00 
1.5330265e+00 1.0000000e-01 0.0000000e+00 
1.5399145e+00 0.0000000e+00 0.0000000e+00 
1.6957705e+00 1.0000000e-01 0.0000000e+00 
1.6996379e+00 0.0000000e+00 0.0000000e+00 
1.8511606e+00 1.0000000e-01 0.0000000e+00 
1.8523363e+00 0.0000000e+00 0.0000000e+00 
2.0000000e+00 1.0000000e-01 0.0000000e+00 
2.0000000e+00 0.0000000e+00 0.0000000e+00 

CELLS 24 96
3 25 24 23
3 0 1 2
3 1 3 2
3 2 3 4
3 24 22 23
3 23 22 21
3 3 5 4
3 4 5 6
3 22 20 21
3 21 20 19
3 5 7 6
3 6 7 8
3 20 18 19
3 19 18 17
3 7 9 8
3 8 9 10
3 18 16 17
3 17 16 15
3 9 11 10
3 10 11 12
3 16 14 15
3 15 14 13
3 11 13 12
3 12 13 14

CELL_TYPES 24
5
5
5
5
5
5
5
5
5
5
5
5
5
5
5
5
5
5
5
5
5
5
5
5
POINT_DATA 26
FIELD FieldData 3
DISPLACEMENT 3 26  float
0.0000000e+00 0.0000000e+00 0.0000000e+00 
0.0000000e+00 0.0000000e+00 0.0000000e+00 
4.2818142e-03 -7.8095952e-03 0.0000000e+00 
-5.4457444e-03 -7.4097337e-03 0.0000000e+00 
6.8875114e-03 -3.0560808e-02 0.0000000e+00 
-1.2045163e-02 -2.9480362e-02 0.0000000e+00 
6.4681582e-03 -6.8685301e-02 0.0000000e+00 
-2.1153463e-02 -6.6764548e-02 0.0000000e+00 
1.6766818e-03 -1.2245337e-01 0.0000000e+00 
-3.4068976e-02 -1.1973233e-01 0.0000000e+00 
-8.7205144e-03 -1.9203196e-01 0.0000000e+00 
-5.1975686e-02 -1.8875755e-01 0.0000000e+00 
-2.5775563e-02 -2.7746698e-01 0.0000000e+00 
-7.5853944e-02 -2.7408418e-01 0.0000000e+00 
-4.9200583e-02 -3.7502974e-01 0.0000000e+00 
-1.0384616e-01 -3.6755320e-01 0.0000000e+00 
-7.6431222e-02 -4.7454268e-01 0.0000000e+00 
-1.3422234e-01 -4.6319076e-01 0.0000000e+00 
-1.0615815e-01 -5.7386494e-01 0.0000000e+00 
-1.6595985e-01 -5.5906117e-01 0.0000000e+00 
-1.3724953e-01 -6.7155182e-01 0.0000000e+00 
-1.9817698e-01 -6.5382755e-01 0.0000000e+00 
-1.6878770e-01 -7.6665211e-01 0.0000000e+00 
-2.3015091e-01 -7.4657816e-01 0.0000000e+00 
-2.0005895e-01 -8.5855114e-01 0.0000000e+00 
-2.6151505e-01 -8.3742326e-01 0.0000000e+00 
REACTION 3 26  float
0.0000000e+00 0.0000000e+00 0.0000000e+00 
0.0000000e+00 0.0000000e+00 0.0000000e+00 
0.0000000e+00 0.0000000e+00 0.0000000e+00 
0.0000000e+00 0.0000000e+00 0.0000000e+00 
0.0000000e+00 0.0000000e+00 0.0000000e+00 
0.0000000e+00 0.0000000e+00 0.0000000e+00 
0.0000000e+00 0.0000000e+00 0.0000000e+00 
0.0000000e+00 0.0000000e+00 0.0000000e+00 
0.0000000e+00 0.0000000e+00 0.0000000e+00 
0.0000000e+00 0.0000000e+00 0.0000000e+00 
0.0000000e+00 0.0000000e+00 0.0000000e+00 
0.0000000e+00 0.0000000e+00 0.0000000e+00 
0.0000000e+00 0.0000000e+00 0.0000000e+00 
0.0000000e+00 0.0000000e+00 0.0000000e+00 
0.0000000e+00 0.0000000e+00 0.0000000e+00 
0.0000000e+00 0.0000000e+00 0.0000000e+00 
0.0000000e+00 0.0000000e+00 0.0000000e+00 
0.0000000e+00 0.0000000e+00 0.0000000e+00 
0.0000000e+00 0.0000000e+00 0.0000000e+00 
0.0000000e+00 0.0000000e+00 0.0000000e+00 
0.0000000e+00 0.0000000e+00 0.0000000e+00 
0.0000000e+00 0.0000000e+00 0.0000000e+00 
0.0000000e+00 0.0000000e+00 0.0000000e+00 
0.0000000e+00 0.0000000e+00 0.0000000e+00 
0.0000000e+00 0.0000000e+00 0.0000000e+00 
0.0000000e+00 0.0000000e+00 0.0000000e+00 
VON_MISES_STRESS 1 26  float
9.6149207e+09
9.4398290e+09
9.2433572e+09
8.8437074e+09
8.4782090e+09
8.0400630e+09
7.6977792e+09
7.2031324e+09
6.8782740e+09
6.3293855e+09
6.0148946e+09
5.4124436e+09
5.1317970e+09
4.4799206e+09
4.2185905e+09
3.5423857e+09
3.3461012e+09
2.7031685e+09
2.5416297e+09
1.9332585e+09
1.8020196e+09
1.2298721e+09
1.1251185e+09
6.3411053e+08
6.1549658e+08
2.0864027e+08
CELL_DATA 24
FIELD FieldData 0
