# vtk DataFile Version 4.0
vtk output
ASCII
DATASET UNSTRUCTURED_GRID
POINTS 26 float
0.0000000e+00 1.0000000e-01 0.0000000e+00 
0.0000000e+00 0.0000000e+00 0.0000000e+00 
1.4766368e-01 1.0000000e-01 0.0000000e+00 
1.4883940e-01 0.0000000e+00 0.0000000e+00 
3.0036214e-01 1.0000000e-01 0.0000000e+00 
3.0422947e-01 0.0000000e+00 0.0000000e+00 
4.6008557e-01 1.0000000e-01 0.0000000e+00 
4.6697357e-01 0.0000000e+00 0.0000000e+00 
6.2771249e-01 1.0000000e-01 0.0000000e+00 
6.3798475e-01 0.0000000e+00 0.0000000e+00 
8.0424988e-01 1.0000000e-01 0.0000000e+00 
8.1830680e-01 0.0000000e+00 0.0000000e+00 
9.9085975e-01 1.0000000e-01 0.0000000e+00 
1.0091403e+00 0.0000000e+00 0.0000000e+00 
1.1816932e+00 1.0000000e-01 0.0000000e+00 
1.1957501e+00 0.0000000e+00 0.0000000e+00 
1.3620152e+00 1.0000000e-01 0.0000000e+00 
1.3722875e+00 0.0000000e+00 0.0000000e+00 
1.5330265e+00 1.0000000e-01 0.0000000e+00 
1.5399145e+00 0.0000000e+00 0.0000000e+00 
1.6957705e+00 1.0000000e-01 0.0000000e+00 
1.6996379e+00 0.0000000e+00 0.0000000e+00 
1.8511606e+00 1.0000000e-01 0.0000000e+00 
1.8523363e+00 0.0000000e+00 0.0000000e+00 
2.0000000e+00 1.0000000e-01 0.0000000e+00 
2.0000000e+00 0.0000000e+00 0.0000000e+00 

CELLS 24 96
3 25 24 23
3 0 1 2
3 1 3 2
3 2 3 4
3 24 22 23
3 23 22 21
3 3 5 4
3 4 5 6
3 22 20 21
3 21 20 19
3 5 7 6
3 6 7 8
3 20 18 19
3 19 18 17
3 7 9 8
3 8 9 10
3 18 16 17
3 17 16 15
3 9 11 10
3 10 11 12
3 16 14 15
3 15 14 13
3 11 13 12
3 12 13 14

CELL_TYPES 24
5
5
5
5
5
5
5
5
5
5
5
5
5
5
5
5
5
5
5
5
5
5
5
5
POINT_DATA 26
FIELD FieldData 3
DISPLACEMENT 3 26  float
0.0000000e+00 0.0000000e+00 0.0000000e+00 
0.0000000e+00 0.0000000e+00 0.0000000e+00 
5.2609327e-03 -9.9950088e-03 0.0000000e+00 
-7.0972620e-03 -9.2845773e-03 0.0000000e+00 
7.8949025e-03 -3.9010365e-02 0.0000000e+00 
-1.6055508e-02 -3.6998913e-02 0.0000000e+00 
5.7335002e-03 -8.7309606e-02 0.0000000e+00 
-2.9004671e-02 -8.3586663e-02 0.0000000e+00 
-3.2599454e-03 -1.5484241e-01 0.0000000e+00 
-4.7934480e-02 -1.4932008e-01 0.0000000e+00 
-2.0868534e-02 -2.4140246e-01 0.0000000e+00 
-7.4605189e-02 -2.3431583e-01 0.0000000e+00 
-4.8538517e-02 -3.4665537e-01 0.0000000e+00 
-1.1043178e-01 -3.3854383e-01 0.0000000e+00 
-8.5663728e-02 -4.6575975e-01 0.0000000e+00 
-1.5255931e-01 -4.5187187e-01 0.0000000e+00 
-1.2810239e-01 -5.8628953e-01 0.0000000e+00 
-1.9826041e-01 -5.6709421e-01 0.0000000e+00 
-1.7390093e-01 -7.0585281e-01 0.0000000e+00 
-2.4599825e-01 -6.8204361e-01 0.0000000e+00 
-2.2142455e-01 -8.2293153e-01 0.0000000e+00 
-2.9448110e-01 -7.9529762e-01 0.0000000e+00 
-2.6938030e-01 -9.3659282e-01 0.0000000e+00 
-3.4267050e-01 -9.0593880e-01 0.0000000e+00 
-3.1677893e-01 -1.0462803e+00 0.0000000e+00 
-3.9009929e-01 -1.0142663e+00 0.0000000e+00 
REACTION 3 26  float
0.0000000e+00 0.0000000e+00 0.0000000e+00 
0.0000000e+00 0.0000000e+00 0.0000000e+00 
0.0000000e+00 0.0000000e+00 0.0000000e+00 
0.0000000e+00 0.0000000e+00 0.0000000e+00 
0.0000000e+00 0.0000000e+00 0.0000000e+00 
0.0000000e+00 0.0000000e+00 0.0000000e+00 
0.0000000e+00 0.0000000e+00 0.0000000e+00 
0.0000000e+00 0.0000000e+00 0.0000000e+00 
0.0000000e+00 0.0000000e+00 0.0000000e+00 
0.0000000e+00 0.0000000e+00 0.0000000e+00 
0.0000000e+00 0.0000000e+00 0.0000000e+00 
0.0000000e+00 0.0000000e+00 0.0000000e+00 
0.0000000e+00 0.0000000e+00 0.0000000e+00 
0.0000000e+00 0.0000000e+00 0.0000000e+00 
0.0000000e+00 0.0000000e+00 0.0000000e+00 
0.0000000e+00 0.0000000e+00 0.0000000e+00 
0.0000000e+00 0.0000000e+00 0.0000000e+00 
0.0000000e+00 0.0000000e+00 0.0000000e+00 
0.0000000e+00 0.0000000e+00 0.0000000e+00 
0.0000000e+00 0.0000000e+00 0.0000000e+00 
0.0000000e+00 0.0000000e+00 0.0000000e+00 
0.0000000e+00 0.0000000e+00 0.0000000e+00 
0.0000000e+00 0.0000000e+00 0.0000000e+00 
0.0000000e+00 0.0000000e+00 0.0000000e+00 
0.0000000e+00 0.0000000e+00 0.0000000e+00 
0.0000000e+00 0.0000000e+00 0.0000000e+00 
VON_MISES_STRESS 1 26  float
1.2191193e+10
1.2009916e+10
1.1732684e+10
1.1214607e+10
1.0695355e+10
1.0107974e+10
9.6396605e+09
8.9739284e+09
8.5480863e+09
7.8133361e+09
7.4197883e+09
6.6226601e+09
6.2885668e+09
5.4408458e+09
5.1453517e+09
4.2767291e+09
4.0718246e+09
3.2523105e+09
3.0971085e+09
2.3247677e+09
2.2107497e+09
1.4824931e+09
1.4016332e+09
7.5825005e+08
7.5370470e+08
1.8120816e+08
CELL_DATA 24
FIELD FieldData 0
