# vtk DataFile Version 4.0
vtk output
ASCII
DATASET UNSTRUCTURED_GRID
POINTS 26 float
0.0000000e+00 1.0000000e-01 0.0000000e+00 
0.0000000e+00 0.0000000e+00 0.0000000e+00 
1.4766368e-01 1.0000000e-01 0.0000000e+00 
1.4883940e-01 0.0000000e+00 0.0000000e+00 
3.0036214e-01 1.0000000e-01 0.0000000e+00 
3.0422947e-01 0.0000000e+00 0.0000000e+00 
4.6008557e-01 1.0000000e-01 0.0000000e+00 
4.6697357e-01 0.0000000e+00 0.0000000e+00 
6.2771249e-01 1.0000000e-01 0.0000000e+00 
6.3798475e-01 0.0000000e+00 0.0000000e+00 
8.0424988e-01 1.0000000e-01 0.0000000e+00 
8.1830680e-01 0.0000000e+00 0.0000000e+00 
9.9085975e-01 1.0000000e-01 0.0000000e+00 
1.0091403e+00 0.0000000e+00 0.0000000e+00 
1.1816932e+00 1.0000000e-01 0.0000000e+00 
1.1957501e+00 0.0000000e+00 0.0000000e+00 
1.3620152e+00 1.0000000e-01 0.0000000e+00 
1.3722875e+00 0.0000000e+00 0.0000000e+00 
1.5330265e+00 1.0000000e-01 0.0000000e+00 
1.5399145e+00 0.0000000e+00 0.0000000e+00 
1.6957705e+00 1.0000000e-01 0.0000000e+00 
1.6996379e+00 0.0000000e+00 0.0000000e+00 
1.8511606e+00 1.0000000e-01 0.0000000e+00 
1.8523363e+00 0.0000000e+00 0.0000000e+00 
2.0000000e+00 1.0000000e-01 0.0000000e+00 
2.0000000e+00 0.0000000e+00 0.0000000e+00 

CELLS 24 96
3 25 24 23
3 0 1 2
3 1 3 2
3 2 3 4
3 24 22 23
3 23 22 21
3 3 5 4
3 4 5 6
3 22 20 21
3 21 20 19
3 5 7 6
3 6 7 8
3 20 18 19
3 19 18 17
3 7 9 8
3 8 9 10
3 18 16 17
3 17 16 15
3 9 11 10
3 10 11 12
3 16 14 15
3 15 14 13
3 11 13 12
3 12 13 14

CELL_TYPES 24
5
5
5
5
5
5
5
5
5
5
5
5
5
5
5
5
5
5
5
5
5
5
5
5
POINT_DATA 26
FIELD FieldData 3
DISPLACEMENT 3 26  float
0.0000000e+00 0.0000000e+00 0.0000000e+00 
0.0000000e+00 0.0000000e+00 0.0000000e+00 
7.0932913e-03 -1.4855522e-02 0.0000000e+00 
-1.0902198e-02 -1.3199341e-02 0.0000000e+00 
8.7677445e-03 -5.7376198e-02 0.0000000e+00 
-2.5592977e-02 -5.2537821e-02 0.0000000e+00 
6.9154665e-04 -1.2666585e-01 0.0000000e+00 
-4.8212845e-02 -1.1758867e-01 0.0000000e+00 
-2.0629060e-02 -2.2113322e-01 0.0000000e+00 
-8.2295582e-02 -2.0750614e-01 0.0000000e+00 
-5.7841066e-02 -3.3905390e-01 0.0000000e+00 
-1.3064867e-01 -3.2121629e-01 0.0000000e+00 
-1.1276063e-01 -4.7878140e-01 0.0000000e+00 
-1.9528235e-01 -4.5761132e-01 0.0000000e+00 
-1.8349366e-01 -6.3325590e-01 0.0000000e+00 
-2.7061304e-01 -6.0298949e-01 0.0000000e+00 
-2.6190424e-01 -7.8658354e-01 0.0000000e+00 
-3.5148075e-01 -7.4838245e-01 0.0000000e+00 
-3.4471738e-01 -9.3647957e-01 0.0000000e+00 
-4.3530783e-01 -8.9164042e-01 0.0000000e+00 
-4.2941129e-01 -1.0817671e+00 0.0000000e+00 
-5.2008069e-01 -1.0315681e+00 0.0000000e+00 
-5.1412088e-01 -1.2219157e+00 0.0000000e+00 
-6.0427541e-01 -1.1675490e+00 0.0000000e+00 
-5.9748596e-01 -1.3567554e+00 0.0000000e+00 
-6.8745869e-01 -1.3004043e+00 0.0000000e+00 
REACTION 3 26  float
0.0000000e+00 0.0000000e+00 0.0000000e+00 
0.0000000e+00 0.0000000e+00 0.0000000e+00 
0.0000000e+00 0.0000000e+00 0.0000000e+00 
0.0000000e+00 0.0000000e+00 0.0000000e+00 
0.0000000e+00 0.0000000e+00 0.0000000e+00 
0.0000000e+00 0.0000000e+00 0.0000000e+00 
0.0000000e+00 0.0000000e+00 0.0000000e+00 
0.0000000e+00 0.0000000e+00 0.0000000e+00 
0.0000000e+00 0.0000000e+00 0.0000000e+00 
0.0000000e+00 0.0000000e+00 0.0000000e+00 
0.0000000e+00 0.0000000e+00 0.0000000e+00 
0.0000000e+00 0.0000000e+00 0.0000000e+00 
0.0000000e+00 0.0000000e+00 0.0000000e+00 
0.0000000e+00 0.0000000e+00 0.0000000e+00 
0.0000000e+00 0.0000000e+00 0.0000000e+00 
0.0000000e+00 0.0000000e+00 0.0000000e+00 
0.0000000e+00 0.0000000e+00 0.0000000e+00 
0.0000000e+00 0.0000000e+00 0.0000000e+00 
0.0000000e+00 0.0000000e+00 0.0000000e+00 
0.0000000e+00 0.0000000e+00 0.0000000e+00 
0.0000000e+00 0.0000000e+00 0.0000000e+00 
0.0000000e+00 0.0000000e+00 0.0000000e+00 
0.0000000e+00 0.0000000e+00 0.0000000e+00 
0.0000000e+00 0.0000000e+00 0.0000000e+00 
0.0000000e+00 0.0000000e+00 0.0000000e+00 
0.0000000e+00 0.0000000e+00 0.0000000e+00 
VON_MISES_STRESS 1 26  float
1.7735117e+10
1.7544294e+10
1.7040609e+10
1.6170161e+10
1.5221862e+10
1.4184015e+10
1.3399102e+10
1.2240253e+10
1.1597058e+10
1.0358552e+10
9.8324531e+09
8.5448417e+09
8.1610711e+09
6.8613581e+09
6.5799194e+09
5.2973747e+09
5.1693317e+09
3.9895683e+09
3.9485332e+09
2.8554030e+09
2.8803807e+09
1.8558885e+09
1.9288740e+09
9.6384211e+08
1.0226272e+09
2.9166962e+07
CELL_DATA 24
FIELD FieldData 0
