# vtk DataFile Version 4.0
vtk output
ASCII
DATASET UNSTRUCTURED_GRID
POINTS 26 float
0.0000000e+00 1.0000000e-01 0.0000000e+00 
0.0000000e+00 0.0000000e+00 0.0000000e+00 
1.4766368e-01 1.0000000e-01 0.0000000e+00 
1.4883940e-01 0.0000000e+00 0.0000000e+00 
3.0036214e-01 1.0000000e-01 0.0000000e+00 
3.0422947e-01 0.0000000e+00 0.0000000e+00 
4.6008557e-01 1.0000000e-01 0.0000000e+00 
4.6697357e-01 0.0000000e+00 0.0000000e+00 
6.2771249e-01 1.0000000e-01 0.0000000e+00 
6.3798475e-01 0.0000000e+00 0.0000000e+00 
8.0424988e-01 1.0000000e-01 0.0000000e+00 
8.1830680e-01 0.0000000e+00 0.0000000e+00 
9.9085975e-01 1.0000000e-01 0.0000000e+00 
1.0091403e+00 0.0000000e+00 0.0000000e+00 
1.1816932e+00 1.0000000e-01 0.0000000e+00 
1.1957501e+00 0.0000000e+00 0.0000000e+00 
1.3620152e+00 1.0000000e-01 0.0000000e+00 
1.3722875e+00 0.0000000e+00 0.0000000e+00 
1.5330265e+00 1.0000000e-01 0.0000000e+00 
1.5399145e+00 0.0000000e+00 0.0000000e+00 
1.6957705e+00 1.0000000e-01 0.0000000e+00 
1.6996379e+00 0.0000000e+00 0.0000000e+00 
1.8511606e+00 1.0000000e-01 0.0000000e+00 
1.8523363e+00 0.0000000e+00 0.0000000e+00 
2.0000000e+00 1.0000000e-01 0.0000000e+00 
2.0000000e+00 0.0000000e+00 0.0000000e+00 

CELLS 24 96
3 25 24 23
3 0 1 2
3 1 3 2
3 2 3 4
3 24 22 23
3 23 22 21
3 3 5 4
3 4 5 6
3 22 20 21
3 21 20 19
3 5 7 6
3 6 7 8
3 20 18 19
3 19 18 17
3 7 9 8
3 8 9 10
3 18 16 17
3 17 16 15
3 9 11 10
3 10 11 12
3 16 14 15
3 15 14 13
3 11 13 12
3 12 13 14

CELL_TYPES 24
5
5
5
5
5
5
5
5
5
5
5
5
5
5
5
5
5
5
5
5
5
5
5
5
POINT_DATA 26
FIELD FieldData 3
DISPLACEMENT 3 26  float
0.0000000e+00 0.0000000e+00 0.0000000e+00 
0.0000000e+00 0.0000000e+00 0.0000000e+00 
4.6873637e-03 -8.6887740e-03 0.0000000e+00 
-6.1048139e-03 -8.1733968e-03 0.0000000e+00 
7.3403977e-03 -3.3970855e-02 0.0000000e+00 
-1.3632350e-02 -3.2545019e-02 0.0000000e+00 
6.2979329e-03 -7.6233074e-02 0.0000000e+00 
-2.4234757e-02 -7.3643006e-02 0.0000000e+00 
-5.8225465e-05 -1.3564421e-01 0.0000000e+00 
-3.9480817e-02 -1.3188072e-01 0.0000000e+00 
-1.3185254e-02 -2.1224752e-01 0.0000000e+00 
-6.0785763e-02 -2.0755200e-01 0.0000000e+00 
-3.4302853e-02 -3.0595785e-01 0.0000000e+00 
-8.9309588e-02 -3.0081117e-01 0.0000000e+00 
-6.3014038e-02 -4.1259754e-01 0.0000000e+00 
-1.2281550e-01 -4.0268257e-01 0.0000000e+00 
-9.6150771e-02 -5.2103746e-01 0.0000000e+00 
-1.5918878e-01 -5.0666553e-01 0.0000000e+00 
-1.3214880e-01 -6.2901205e-01 0.0000000e+00 
-1.9720267e-01 -6.1071163e-01 0.0000000e+00 
-1.6967283e-01 -7.3502707e-01 0.0000000e+00 
-2.3580955e-01 -7.1343267e-01 0.0000000e+00 
-2.0765050e-01 -8.3812255e-01 0.0000000e+00 
-2.7415672e-01 -8.1390065e-01 0.0000000e+00 
-2.4525286e-01 -9.3769509e-01 0.0000000e+00 
-3.1183064e-01 -9.1229492e-01 0.0000000e+00 
REACTION 3 26  float
0.0000000e+00 0.0000000e+00 0.0000000e+00 
0.0000000e+00 0.0000000e+00 0.0000000e+00 
0.0000000e+00 0.0000000e+00 0.0000000e+00 
0.0000000e+00 0.0000000e+00 0.0000000e+00 
0.0000000e+00 0.0000000e+00 0.0000000e+00 
0.0000000e+00 0.0000000e+00 0.0000000e+00 
0.0000000e+00 0.0000000e+00 0.0000000e+00 
0.0000000e+00 0.0000000e+00 0.0000000e+00 
0.0000000e+00 0.0000000e+00 0.0000000e+00 
0.0000000e+00 0.0000000e+00 0.0000000e+00 
0.0000000e+00 0.0000000e+00 0.0000000e+00 
0.0000000e+00 0.0000000e+00 0.0000000e+00 
0.0000000e+00 0.0000000e+00 0.0000000e+00 
0.0000000e+00 0.0000000e+00 0.0000000e+00 
0.0000000e+00 0.0000000e+00 0.0000000e+00 
0.0000000e+00 0.0000000e+00 0.0000000e+00 
0.0000000e+00 0.0000000e+00 0.0000000e+00 
0.0000000e+00 0.0000000e+00 0.0000000e+00 
0.0000000e+00 0.0000000e+00 0.0000000e+00 
0.0000000e+00 0.0000000e+00 0.0000000e+00 
0.0000000e+00 0.0000000e+00 0.0000000e+00 
0.0000000e+00 0.0000000e+00 0.0000000e+00 
0.0000000e+00 0.0000000e+00 0.0000000e+00 
0.0000000e+00 0.0000000e+00 0.0000000e+00 
0.0000000e+00 0.0000000e+00 0.0000000e+00 
0.0000000e+00 0.0000000e+00 0.0000000e+00 
VON_MISES_STRESS 1 26  float
1.0657608e+10
1.0479053e+10
1.0251598e+10
9.8062336e+09
9.3818225e+09
8.8866396e+09
8.4951854e+09
7.9347830e+09
7.5695360e+09
6.9485297e+09
6.6013097e+09
5.9223905e+09
5.6183982e+09
4.8884193e+09
4.6107146e+09
3.8568671e+09
3.6541550e+09
2.9393705e+09
2.7771909e+09
2.1017151e+09
1.9741256e+09
1.3379917e+09
1.2395516e+09
6.8743027e+08
6.7345850e+08
2.0262222e+08
CELL_DATA 24
FIELD FieldData 0
