# vtk DataFile Version 4.0
vtk output
ASCII
DATASET UNSTRUCTURED_GRID
POINTS 26 float
0.0000000e+00 1.0000000e-01 0.0000000e+00 
0.0000000e+00 0.0000000e+00 0.0000000e+00 
1.4766368e-01 1.0000000e-01 0.0000000e+00 
1.4883940e-01 0.0000000e+00 0.0000000e+00 
3.0036214e-01 1.0000000e-01 0.0000000e+00 
3.0422947e-01 0.0000000e+00 0.0000000e+00 
4.6008557e-01 1.0000000e-01 0.0000000e+00 
4.6697357e-01 0.0000000e+00 0.0000000e+00 
6.2771249e-01 1.0000000e-01 0.0000000e+00 
6.3798475e-01 0.0000000e+00 0.0000000e+00 
8.0424988e-01 1.0000000e-01 0.0000000e+00 
8.1830680e-01 0.0000000e+00 0.0000000e+00 
9.9085975e-01 1.0000000e-01 0.0000000e+00 
1.0091403e+00 0.0000000e+00 0.0000000e+00 
1.1816932e+00 1.0000000e-01 0.0000000e+00 
1.1957501e+00 0.0000000e+00 0.0000000e+00 
1.3620152e+00 1.0000000e-01 0.0000000e+00 
1.3722875e+00 0.0000000e+00 0.0000000e+00 
1.5330265e+00 1.0000000e-01 0.0000000e+00 
1.5399145e+00 0.0000000e+00 0.0000000e+00 
1.6957705e+00 1.0000000e-01 0.0000000e+00 
1.6996379e+00 0.0000000e+00 0.0000000e+00 
1.8511606e+00 1.0000000e-01 0.0000000e+00 
1.8523363e+00 0.0000000e+00 0.0000000e+00 
2.0000000e+00 1.0000000e-01 0.0000000e+00 
2.0000000e+00 0.0000000e+00 0.0000000e+00 

CELLS 24 96
3 25 24 23
3 0 1 2
3 1 3 2
3 2 3 4
3 24 22 23
3 23 22 21
3 3 5 4
3 4 5 6
3 22 20 21
3 21 20 19
3 5 7 6
3 6 7 8
3 20 18 19
3 19 18 17
3 7 9 8
3 8 9 10
3 18 16 17
3 17 16 15
3 9 11 10
3 10 11 12
3 16 14 15
3 15 14 13
3 11 13 12
3 12 13 14

CELL_TYPES 24
5
5
5
5
5
5
5
5
5
5
5
5
5
5
5
5
5
5
5
5
5
5
5
5
POINT_DATA 26
FIELD FieldData 3
DISPLACEMENT 3 26  float
0.0000000e+00 0.0000000e+00 0.0000000e+00 
0.0000000e+00 0.0000000e+00 0.0000000e+00 
3.5449143e-03 -6.2919776e-03 0.0000000e+00 
-4.3268111e-03 -6.0601151e-03 0.0000000e+00 
5.9529250e-03 -2.4647454e-02 0.0000000e+00 
-9.3987631e-03 -2.4064576e-02 0.0000000e+00 
6.3490639e-03 -5.5512473e-02 0.0000000e+00 
-1.6114464e-02 -5.4552957e-02 0.0000000e+00 
3.8181066e-03 -9.9251501e-02 0.0000000e+00 
-2.5344374e-02 -9.8025002e-02 0.0000000e+00 
-2.4996621e-03 -1.5616204e-01 0.0000000e+00 
-3.7893359e-02 -1.5491943e-01 0.0000000e+00 
-1.3358718e-02 -2.2644177e-01 0.0000000e+00 
-5.4435320e-02 -2.2556707e-01 0.0000000e+00 
-2.8606698e-02 -3.0713010e-01 0.0000000e+00 
-7.3691741e-02 -3.0328086e-01 0.0000000e+00 
-4.6598796e-02 -3.8982362e-01 0.0000000e+00 
-9.4527841e-02 -3.8308704e-01 0.0000000e+00 
-6.6436104e-02 -4.7266790e-01 0.0000000e+00 
-1.1625104e-01 -4.6330532e-01 0.0000000e+00 
-8.7325871e-02 -5.5436897e-01 0.0000000e+00 
-1.3825601e-01 -5.4274291e-01 0.0000000e+00 
-1.0861575e-01 -6.3404423e-01 0.0000000e+00 
-1.6004151e-01 -6.2056279e-01 0.0000000e+00 
-1.2979375e-01 -7.1110231e-01 0.0000000e+00 
-1.8133478e-01 -6.9678336e-01 0.0000000e+00 
REACTION 3 26  float
0.0000000e+00 0.0000000e+00 0.0000000e+00 
0.0000000e+00 0.0000000e+00 0.0000000e+00 
0.0000000e+00 0.0000000e+00 0.0000000e+00 
0.0000000e+00 0.0000000e+00 0.0000000e+00 
0.0000000e+00 0.0000000e+00 0.0000000e+00 
0.0000000e+00 0.0000000e+00 0.0000000e+00 
0.0000000e+00 0.0000000e+00 0.0000000e+00 
0.0000000e+00 0.0000000e+00 0.0000000e+00 
0.0000000e+00 0.0000000e+00 0.0000000e+00 
0.0000000e+00 0.0000000e+00 0.0000000e+00 
0.0000000e+00 0.0000000e+00 0.0000000e+00 
0.0000000e+00 0.0000000e+00 0.0000000e+00 
0.0000000e+00 0.0000000e+00 0.0000000e+00 
0.0000000e+00 0.0000000e+00 0.0000000e+00 
0.0000000e+00 0.0000000e+00 0.0000000e+00 
0.0000000e+00 0.0000000e+00 0.0000000e+00 
0.0000000e+00 0.0000000e+00 0.0000000e+00 
0.0000000e+00 0.0000000e+00 0.0000000e+00 
0.0000000e+00 0.0000000e+00 0.0000000e+00 
0.0000000e+00 0.0000000e+00 0.0000000e+00 
0.0000000e+00 0.0000000e+00 0.0000000e+00 
0.0000000e+00 0.0000000e+00 0.0000000e+00 
0.0000000e+00 0.0000000e+00 0.0000000e+00 
0.0000000e+00 0.0000000e+00 0.0000000e+00 
0.0000000e+00 0.0000000e+00 0.0000000e+00 
0.0000000e+00 0.0000000e+00 0.0000000e+00 
VON_MISES_STRESS 1 26  float
7.7953971e+09
7.6311081e+09
7.4835123e+09
7.1588454e+09
6.8858998e+09
6.5388667e+09
6.2763069e+09
5.8872013e+09
5.6306616e+09
5.1990339e+09
4.9431260e+09
4.4673362e+09
4.2319583e+09
3.7126428e+09
3.4870569e+09
2.9451174e+09
2.7686108e+09
2.2515500e+09
2.1006525e+09
1.6108113e+09
1.4831821e+09
1.0240693e+09
9.1835328e+08
5.3163914e+08
5.0837581e+08
2.0355554e+08
CELL_DATA 24
FIELD FieldData 0
