# vtk DataFile Version 4.0
vtk output
ASCII
DATASET UNSTRUCTURED_GRID
POINTS 26 float
0.0000000e+00 1.0000000e-01 0.0000000e+00 
0.0000000e+00 0.0000000e+00 0.0000000e+00 
1.4766368e-01 1.0000000e-01 0.0000000e+00 
1.4883940e-01 0.0000000e+00 0.0000000e+00 
3.0036214e-01 1.0000000e-01 0.0000000e+00 
3.0422947e-01 0.0000000e+00 0.0000000e+00 
4.6008557e-01 1.0000000e-01 0.0000000e+00 
4.6697357e-01 0.0000000e+00 0.0000000e+00 
6.2771249e-01 1.0000000e-01 0.0000000e+00 
6.3798475e-01 0.0000000e+00 0.0000000e+00 
8.0424988e-01 1.0000000e-01 0.0000000e+00 
8.1830680e-01 0.0000000e+00 0.0000000e+00 
9.9085975e-01 1.0000000e-01 0.0000000e+00 
1.0091403e+00 0.0000000e+00 0.0000000e+00 
1.1816932e+00 1.0000000e-01 0.0000000e+00 
1.1957501e+00 0.0000000e+00 0.0000000e+00 
1.3620152e+00 1.0000000e-01 0.0000000e+00 
1.3722875e+00 0.0000000e+00 0.0000000e+00 
1.5330265e+00 1.0000000e-01 0.0000000e+00 
1.5399145e+00 0.0000000e+00 0.0000000e+00 
1.6957705e+00 1.0000000e-01 0.0000000e+00 
1.6996379e+00 0.0000000e+00 0.0000000e+00 
1.8511606e+00 1.0000000e-01 0.0000000e+00 
1.8523363e+00 0.0000000e+00 0.0000000e+00 
2.0000000e+00 1.0000000e-01 0.0000000e+00 
2.0000000e+00 0.0000000e+00 0.0000000e+00 

CELLS 24 96
3 25 24 23
3 0 1 2
3 1 3 2
3 2 3 4
3 24 22 23
3 23 22 21
3 3 5 4
3 4 5 6
3 22 20 21
3 21 20 19
3 5 7 6
3 6 7 8
3 20 18 19
3 19 18 17
3 7 9 8
3 8 9 10
3 18 16 17
3 17 16 15
3 9 11 10
3 10 11 12
3 16 14 15
3 15 14 13
3 11 13 12
3 12 13 14

CELL_TYPES 24
5
5
5
5
5
5
5
5
5
5
5
5
5
5
5
5
5
5
5
5
5
5
5
5
POINT_DATA 26
FIELD FieldData 3
DISPLACEMENT 3 26  float
0.0000000e+00 0.0000000e+00 0.0000000e+00 
0.0000000e+00 0.0000000e+00 0.0000000e+00 
5.9792739e-03 -1.1755520e-02 0.0000000e+00 
-8.4570497e-03 -1.0740484e-02 0.0000000e+00 
8.4229326e-03 -4.5740526e-02 0.0000000e+00 
-1.9427661e-02 -4.2813808e-02 0.0000000e+00 
4.4143950e-03 -1.0193285e-01 0.0000000e+00 
-3.5739534e-02 -9.6452184e-02 0.0000000e+00 
-8.6496091e-03 -1.7985374e-01 0.0000000e+00 
-5.9962630e-02 -1.7162803e-01 0.0000000e+00 
-3.2948889e-02 -2.7884260e-01 0.0000000e+00 
-9.4297446e-02 -2.6811388e-01 0.0000000e+00 
-7.0164792e-02 -3.9814180e-01 0.0000000e+00 
-1.4045371e-01 -3.8554630e-01 0.0000000e+00 
-1.1931477e-01 -5.3204340e-01 0.0000000e+00 
-1.9465266e-01 -5.1235676e-01 0.0000000e+00 
-1.7484283e-01 -6.6661328e-01 0.0000000e+00 
-2.5329188e-01 -6.4054430e-01 0.0000000e+00 
-2.3427618e-01 -7.9939944e-01 0.0000000e+00 
-3.1442365e-01 -7.6787025e-01 0.0000000e+00 
-2.9560414e-01 -9.2893928e-01 0.0000000e+00 
-3.7645042e-01 -8.9293873e-01 0.0000000e+00 
-3.5727206e-01 -1.0544014e+00 0.0000000e+00 
-4.3811247e-01 -1.0149029e+00 0.0000000e+00 
-4.1810876e-01 -1.1753404e+00 0.0000000e+00 
-4.9890950e-01 -1.1342455e+00 0.0000000e+00 
REACTION 3 26  float
0.0000000e+00 0.0000000e+00 0.0000000e+00 
0.0000000e+00 0.0000000e+00 0.0000000e+00 
0.0000000e+00 0.0000000e+00 0.0000000e+00 
0.0000000e+00 0.0000000e+00 0.0000000e+00 
0.0000000e+00 0.0000000e+00 0.0000000e+00 
0.0000000e+00 0.0000000e+00 0.0000000e+00 
0.0000000e+00 0.0000000e+00 0.0000000e+00 
0.0000000e+00 0.0000000e+00 0.0000000e+00 
0.0000000e+00 0.0000000e+00 0.0000000e+00 
0.0000000e+00 0.0000000e+00 0.0000000e+00 
0.0000000e+00 0.0000000e+00 0.0000000e+00 
0.0000000e+00 0.0000000e+00 0.0000000e+00 
0.0000000e+00 0.0000000e+00 0.0000000e+00 
0.0000000e+00 0.0000000e+00 0.0000000e+00 
0.0000000e+00 0.0000000e+00 0.0000000e+00 
0.0000000e+00 0.0000000e+00 0.0000000e+00 
0.0000000e+00 0.0000000e+00 0.0000000e+00 
0.0000000e+00 0.0000000e+00 0.0000000e+00 
0.0000000e+00 0.0000000e+00 0.0000000e+00 
0.0000000e+00 0.0000000e+00 0.0000000e+00 
0.0000000e+00 0.0000000e+00 0.0000000e+00 
0.0000000e+00 0.0000000e+00 0.0000000e+00 
0.0000000e+00 0.0000000e+00 0.0000000e+00 
0.0000000e+00 0.0000000e+00 0.0000000e+00 
0.0000000e+00 0.0000000e+00 0.0000000e+00 
0.0000000e+00 0.0000000e+00 0.0000000e+00 
VON_MISES_STRESS 1 26  float
1.4228601e+10
1.4045604e+10
1.3693977e+10
1.3065509e+10
1.2404546e+10
1.1675618e+10
1.1097313e+10
1.0272749e+10
9.7654497e+09
8.8634788e+09
8.4133770e+09
7.4477624e+09
7.0832343e+09
6.0739118e+09
5.7680891e+09
4.7466250e+09
4.5536138e+09
3.5977293e+09
3.4675983e+09
2.5712246e+09
2.4913925e+09
1.6461896e+09
1.6050075e+09
8.3833562e+08
8.5072512e+08
1.2853414e+08
CELL_DATA 24
FIELD FieldData 0
