# vtk DataFile Version 4.0
vtk output
ASCII
DATASET UNSTRUCTURED_GRID
POINTS 26 float
0.0000000e+00 1.0000000e-01 0.0000000e+00 
0.0000000e+00 0.0000000e+00 0.0000000e+00 
1.4766368e-01 1.0000000e-01 0.0000000e+00 
1.4883940e-01 0.0000000e+00 0.0000000e+00 
3.0036214e-01 1.0000000e-01 0.0000000e+00 
3.0422947e-01 0.0000000e+00 0.0000000e+00 
4.6008557e-01 1.0000000e-01 0.0000000e+00 
4.6697357e-01 0.0000000e+00 0.0000000e+00 
6.2771249e-01 1.0000000e-01 0.0000000e+00 
6.3798475e-01 0.0000000e+00 0.0000000e+00 
8.0424988e-01 1.0000000e-01 0.0000000e+00 
8.1830680e-01 0.0000000e+00 0.0000000e+00 
9.9085975e-01 1.0000000e-01 0.0000000e+00 
1.0091403e+00 0.0000000e+00 0.0000000e+00 
1.1816932e+00 1.0000000e-01 0.0000000e+00 
1.1957501e+00 0.0000000e+00 0.0000000e+00 
1.3620152e+00 1.0000000e-01 0.0000000e+00 
1.3722875e+00 0.0000000e+00 0.0000000e+00 
1.5330265e+00 1.0000000e-01 0.0000000e+00 
1.5399145e+00 0.0000000e+00 0.0000000e+00 
1.6957705e+00 1.0000000e-01 0.0000000e+00 
1.6996379e+00 0.0000000e+00 0.0000000e+00 
1.8511606e+00 1.0000000e-01 0.0000000e+00 
1.8523363e+00 0.0000000e+00 0.0000000e+00 
2.0000000e+00 1.0000000e-01 0.0000000e+00 
2.0000000e+00 0.0000000e+00 0.0000000e+00 

CELLS 24 96
3 25 24 23
3 0 1 2
3 1 3 2
3 2 3 4
3 24 22 23
3 23 22 21
3 3 5 4
3 4 5 6
3 22 20 21
3 21 20 19
3 5 7 6
3 6 7 8
3 20 18 19
3 19 18 17
3 7 9 8
3 8 9 10
3 18 16 17
3 17 16 15
3 9 11 10
3 10 11 12
3 16 14 15
3 15 14 13
3 11 13 12
3 12 13 14

CELL_TYPES 24
5
5
5
5
5
5
5
5
5
5
5
5
5
5
5
5
5
5
5
5
5
5
5
5
POINT_DATA 26
FIELD FieldData 3
DISPLACEMENT 3 26  float
0.0000000e+00 0.0000000e+00 0.0000000e+00 
0.0000000e+00 0.0000000e+00 0.0000000e+00 
2.9654813e-04 -4.7819357e-04 0.0000000e+00 
-3.0842944e-04 -4.8841303e-04 0.0000000e+00 
5.6878245e-04 -1.8697318e-03 0.0000000e+00 
-6.1173283e-04 -1.9139397e-03 0.0000000e+00 
8.1776286e-04 -4.2195772e-03 0.0000000e+00 
-9.1367884e-04 -4.3299394e-03 0.0000000e+00 
1.0353276e-03 -7.5778356e-03 0.0000000e+00 
-1.2166511e-03 -7.7903913e-03 0.0000000e+00 
1.2126224e-03 -1.1993260e-02 0.0000000e+00 
-1.5216802e-03 -1.2347078e-02 0.0000000e+00 
1.3404192e-03 -1.7508160e-02 0.0000000e+00 
-1.8275171e-03 -1.8042875e-02 0.0000000e+00 
1.4194720e-03 -2.3907380e-02 0.0000000e+00 
-2.1047585e-03 -2.4346141e-02 0.0000000e+00 
1.4390348e-03 -3.0530889e-02 0.0000000e+00 
-2.3559853e-03 -3.0854592e-02 0.0000000e+00 
1.4094370e-03 -3.7219405e-02 0.0000000e+00 
-2.5805915e-03 -3.7420623e-02 0.0000000e+00 
1.3406726e-03 -4.3854218e-02 0.0000000e+00 
-2.7783138e-03 -4.3934517e-02 0.0000000e+00 
1.2413983e-03 -5.0348952e-02 0.0000000e+00 
-2.9491989e-03 -5.0315898e-02 0.0000000e+00 
1.1184290e-03 -5.6642249e-02 0.0000000e+00 
-3.0911977e-03 -5.6552254e-02 0.0000000e+00 
REACTION 3 26  float
0.0000000e+00 0.0000000e+00 0.0000000e+00 
0.0000000e+00 0.0000000e+00 0.0000000e+00 
0.0000000e+00 0.0000000e+00 0.0000000e+00 
0.0000000e+00 0.0000000e+00 0.0000000e+00 
0.0000000e+00 0.0000000e+00 0.0000000e+00 
0.0000000e+00 0.0000000e+00 0.0000000e+00 
0.0000000e+00 0.0000000e+00 0.0000000e+00 
0.0000000e+00 0.0000000e+00 0.0000000e+00 
0.0000000e+00 0.0000000e+00 0.0000000e+00 
0.0000000e+00 0.0000000e+00 0.0000000e+00 
0.0000000e+00 0.0000000e+00 0.0000000e+00 
0.0000000e+00 0.0000000e+00 0.0000000e+00 
0.0000000e+00 0.0000000e+00 0.0000000e+00 
0.0000000e+00 0.0000000e+00 0.0000000e+00 
0.0000000e+00 0.0000000e+00 0.0000000e+00 
0.0000000e+00 0.0000000e+00 0.0000000e+00 
0.0000000e+00 0.0000000e+00 0.0000000e+00 
0.0000000e+00 0.0000000e+00 0.0000000e+00 
0.0000000e+00 0.0000000e+00 0.0000000e+00 
0.0000000e+00 0.0000000e+00 0.0000000e+00 
0.0000000e+00 0.0000000e+00 0.0000000e+00 
0.0000000e+00 0.0000000e+00 0.0000000e+00 
0.0000000e+00 0.0000000e+00 0.0000000e+00 
0.0000000e+00 0.0000000e+00 0.0000000e+00 
0.0000000e+00 0.0000000e+00 0.0000000e+00 
0.0000000e+00 0.0000000e+00 0.0000000e+00 
VON_MISES_STRESS 1 26  float
6.0576339e+08
5.8403546e+08
5.7551962e+08
5.4706931e+08
5.3171501e+08
5.0399824e+08
4.8737773e+08
4.5784854e+08
4.3972070e+08
4.0798042e+08
3.8801952e+08
3.5354762e+08
3.3347853e+08
2.9573136e+08
2.7508390e+08
2.3571374e+08
2.1794219e+08
1.8055845e+08
1.6413658e+08
1.2908447e+08
1.1415858e+08
8.2143808e+07
6.9300232e+07
4.4157008e+07
4.0309068e+07
2.4135576e+07
CELL_DATA 24
FIELD FieldData 0
