# vtk DataFile Version 4.0
vtk output
ASCII
DATASET UNSTRUCTURED_GRID
POINTS 26 float
0.0000000e+00 1.0000000e-01 0.0000000e+00 
0.0000000e+00 0.0000000e+00 0.0000000e+00 
1.4766368e-01 1.0000000e-01 0.0000000e+00 
1.4883940e-01 0.0000000e+00 0.0000000e+00 
3.0036214e-01 1.0000000e-01 0.0000000e+00 
3.0422947e-01 0.0000000e+00 0.0000000e+00 
4.6008557e-01 1.0000000e-01 0.0000000e+00 
4.6697357e-01 0.0000000e+00 0.0000000e+00 
6.2771249e-01 1.0000000e-01 0.0000000e+00 
6.3798475e-01 0.0000000e+00 0.0000000e+00 
8.0424988e-01 1.0000000e-01 0.0000000e+00 
8.1830680e-01 0.0000000e+00 0.0000000e+00 
9.9085975e-01 1.0000000e-01 0.0000000e+00 
1.0091403e+00 0.0000000e+00 0.0000000e+00 
1.1816932e+00 1.0000000e-01 0.0000000e+00 
1.1957501e+00 0.0000000e+00 0.0000000e+00 
1.3620152e+00 1.0000000e-01 0.0000000e+00 
1.3722875e+00 0.0000000e+00 0.0000000e+00 
1.5330265e+00 1.0000000e-01 0.0000000e+00 
1.5399145e+00 0.0000000e+00 0.0000000e+00 
1.6957705e+00 1.0000000e-01 0.0000000e+00 
1.6996379e+00 0.0000000e+00 0.0000000e+00 
1.8511606e+00 1.0000000e-01 0.0000000e+00 
1.8523363e+00 0.0000000e+00 0.0000000e+00 
2.0000000e+00 1.0000000e-01 0.0000000e+00 
2.0000000e+00 0.0000000e+00 0.0000000e+00 

CELLS 24 96
3 25 24 23
3 0 1 2
3 1 3 2
3 2 3 4
3 24 22 23
3 23 22 21
3 3 5 4
3 4 5 6
3 22 20 21
3 21 20 19
3 5 7 6
3 6 7 8
3 20 18 19
3 19 18 17
3 7 9 8
3 8 9 10
3 18 16 17
3 17 16 15
3 9 11 10
3 10 11 12
3 16 14 15
3 15 14 13
3 11 13 12
3 12 13 14

CELL_TYPES 24
5
5
5
5
5
5
5
5
5
5
5
5
5
5
5
5
5
5
5
5
5
5
5
5
POINT_DATA 26
FIELD FieldData 3
DISPLACEMENT 3 26  float
0.0000000e+00 0.0000000e+00 0.0000000e+00 
0.0000000e+00 0.0000000e+00 0.0000000e+00 
3.2377455e-03 -5.6861225e-03 0.0000000e+00 
-3.8872857e-03 -5.5098082e-03 0.0000000e+00 
5.5253981e-03 -2.2279337e-02 0.0000000e+00 
-8.3782738e-03 -2.1858588e-02 0.0000000e+00 
6.1517535e-03 -5.0212070e-02 0.0000000e+00 
-1.4211601e-02 -4.9563091e-02 0.0000000e+00 
4.3569263e-03 -8.9860111e-02 0.0000000e+00 
-2.2104679e-02 -8.9112774e-02 0.0000000e+00 
-5.7937368e-04 -1.4154504e-01 0.0000000e+00 
-3.2723270e-02 -1.4094764e-01 0.0000000e+00 
-9.2957811e-03 -2.0549880e-01 0.0000000e+00 
-4.6625789e-02 -2.0540971e-01 0.0000000e+00 
-2.1678019e-02 -2.7906251e-01 0.0000000e+00 
-6.2736981e-02 -2.7641883e-01 0.0000000e+00 
-3.6398932e-02 -3.5458159e-01 0.0000000e+00 
-8.0130942e-02 -3.4942961e-01 0.0000000e+00 
-5.2708600e-02 -4.3033949e-01 0.0000000e+00 
-9.8235227e-02 -4.2288420e-01 0.0000000e+00 
-6.9940768e-02 -5.0512451e-01 0.0000000e+00 
-1.1654730e-01 -4.9566650e-01 0.0000000e+00 
-8.7544255e-02 -5.7810056e-01 0.0000000e+00 
-1.3464981e-01 -5.6698626e-01 0.0000000e+00 
-1.0508516e-01 -6.4870101e-01 0.0000000e+00 
-1.5230939e-01 -6.3683546e-01 0.0000000e+00 
REACTION 3 26  float
0.0000000e+00 0.0000000e+00 0.0000000e+00 
0.0000000e+00 0.0000000e+00 0.0000000e+00 
0.0000000e+00 0.0000000e+00 0.0000000e+00 
0.0000000e+00 0.0000000e+00 0.0000000e+00 
0.0000000e+00 0.0000000e+00 0.0000000e+00 
0.0000000e+00 0.0000000e+00 0.0000000e+00 
0.0000000e+00 0.0000000e+00 0.0000000e+00 
0.0000000e+00 0.0000000e+00 0.0000000e+00 
0.0000000e+00 0.0000000e+00 0.0000000e+00 
0.0000000e+00 0.0000000e+00 0.0000000e+00 
0.0000000e+00 0.0000000e+00 0.0000000e+00 
0.0000000e+00 0.0000000e+00 0.0000000e+00 
0.0000000e+00 0.0000000e+00 0.0000000e+00 
0.0000000e+00 0.0000000e+00 0.0000000e+00 
0.0000000e+00 0.0000000e+00 0.0000000e+00 
0.0000000e+00 0.0000000e+00 0.0000000e+00 
0.0000000e+00 0.0000000e+00 0.0000000e+00 
0.0000000e+00 0.0000000e+00 0.0000000e+00 
0.0000000e+00 0.0000000e+00 0.0000000e+00 
0.0000000e+00 0.0000000e+00 0.0000000e+00 
0.0000000e+00 0.0000000e+00 0.0000000e+00 
0.0000000e+00 0.0000000e+00 0.0000000e+00 
0.0000000e+00 0.0000000e+00 0.0000000e+00 
0.0000000e+00 0.0000000e+00 0.0000000e+00 
0.0000000e+00 0.0000000e+00 0.0000000e+00 
0.0000000e+00 0.0000000e+00 0.0000000e+00 
VON_MISES_STRESS 1 26  float
7.0621512e+09
6.9043830e+09
6.7747267e+09
6.4792294e+09
6.2400773e+09
5.9274547e+09
5.6948557e+09
5.3456020e+09
5.1157033e+09
4.7287076e+09
4.4967250e+09
4.0697994e+09
3.8540255e+09
3.3868252e+09
3.1779141e+09
2.6895101e+09
2.5237583e+09
2.0573615e+09
1.9138980e+09
1.4720269e+09
1.3491763e+09
9.3573536e+08
8.3296326e+08
4.8723837e+08
4.6331293e+08
1.9623211e+08
CELL_DATA 24
FIELD FieldData 0
