# vtk DataFile Version 4.0
vtk output
ASCII
DATASET UNSTRUCTURED_GRID
POINTS 26 float
0.0000000e+00 1.0000000e-01 0.0000000e+00 
0.0000000e+00 0.0000000e+00 0.0000000e+00 
1.4766368e-01 1.0000000e-01 0.0000000e+00 
1.4883940e-01 0.0000000e+00 0.0000000e+00 
3.0036214e-01 1.0000000e-01 0.0000000e+00 
3.0422947e-01 0.0000000e+00 0.0000000e+00 
4.6008557e-01 1.0000000e-01 0.0000000e+00 
4.6697357e-01 0.0000000e+00 0.0000000e+00 
6.2771249e-01 1.0000000e-01 0.0000000e+00 
6.3798475e-01 0.0000000e+00 0.0000000e+00 
8.0424988e-01 1.0000000e-01 0.0000000e+00 
8.1830680e-01 0.0000000e+00 0.0000000e+00 
9.9085975e-01 1.0000000e-01 0.0000000e+00 
1.0091403e+00 0.0000000e+00 0.0000000e+00 
1.1816932e+00 1.0000000e-01 0.0000000e+00 
1.1957501e+00 0.0000000e+00 0.0000000e+00 
1.3620152e+00 1.0000000e-01 0.0000000e+00 
1.3722875e+00 0.0000000e+00 0.0000000e+00 
1.5330265e+00 1.0000000e-01 0.0000000e+00 
1.5399145e+00 0.0000000e+00 0.0000000e+00 
1.6957705e+00 1.0000000e-01 0.0000000e+00 
1.6996379e+00 0.0000000e+00 0.0000000e+00 
1.8511606e+00 1.0000000e-01 0.0000000e+00 
1.8523363e+00 0.0000000e+00 0.0000000e+00 
2.0000000e+00 1.0000000e-01 0.0000000e+00 
2.0000000e+00 0.0000000e+00 0.0000000e+00 

CELLS 24 96
3 25 24 23
3 0 1 2
3 1 3 2
3 2 3 4
3 24 22 23
3 23 22 21
3 3 5 4
3 4 5 6
3 22 20 21
3 21 20 19
3 5 7 6
3 6 7 8
3 20 18 19
3 19 18 17
3 7 9 8
3 8 9 10
3 18 16 17
3 17 16 15
3 9 11 10
3 10 11 12
3 16 14 15
3 15 14 13
3 11 13 12
3 12 13 14

CELL_TYPES 24
5
5
5
5
5
5
5
5
5
5
5
5
5
5
5
5
5
5
5
5
5
5
5
5
POINT_DATA 26
FIELD FieldData 3
DISPLACEMENT 3 26  float
0.0000000e+00 0.0000000e+00 0.0000000e+00 
0.0000000e+00 0.0000000e+00 0.0000000e+00 
3.4444807e-03 -6.0922732e-03 0.0000000e+00 
-4.1814614e-03 -5.8794608e-03 0.0000000e+00 
5.8154422e-03 -2.3867255e-02 0.0000000e+00 
-9.0600103e-03 -2.3340175e-02 0.0000000e+00 
6.2935823e-03 -5.3767610e-02 0.0000000e+00 
-1.5480033e-02 -5.2915223e-02 0.0000000e+00 
4.0160990e-03 -9.6163101e-02 0.0000000e+00 
-2.4260283e-02 -9.5102273e-02 0.0000000e+00 
-1.8299525e-03 -1.5136085e-01 0.0000000e+00 
-3.6158822e-02 -1.5034194e-01 0.0000000e+00 
-1.1960462e-02 -2.1957147e-01 0.0000000e+00 
-5.1810853e-02 -2.1897019e-01 0.0000000e+00 
-2.6236523e-02 -2.9793420e-01 0.0000000e+00 
-7.0006654e-02 -2.9449889e-01 0.0000000e+00 
-4.3121353e-02 -3.7829015e-01 0.0000000e+00 
-8.9682259e-02 -3.7209374e-01 0.0000000e+00 
-6.1766241e-02 -4.5882893e-01 0.0000000e+00 
-1.1018556e-01 -4.5011362e-01 0.0000000e+00 
-8.1420846e-02 -5.3828233e-01 0.0000000e+00 
-1.3094570e-01 -5.2738976e-01 0.0000000e+00 
-1.0146663e-01 -6.1578184e-01 0.0000000e+00 
-1.5148954e-01 -6.0309958e-01 0.0000000e+00 
-1.2141762e-01 -6.9074339e-01 0.0000000e+00 
-1.7155728e-01 -6.7725211e-01 0.0000000e+00 
REACTION 3 26  float
0.0000000e+00 0.0000000e+00 0.0000000e+00 
0.0000000e+00 0.0000000e+00 0.0000000e+00 
0.0000000e+00 0.0000000e+00 0.0000000e+00 
0.0000000e+00 0.0000000e+00 0.0000000e+00 
0.0000000e+00 0.0000000e+00 0.0000000e+00 
0.0000000e+00 0.0000000e+00 0.0000000e+00 
0.0000000e+00 0.0000000e+00 0.0000000e+00 
0.0000000e+00 0.0000000e+00 0.0000000e+00 
0.0000000e+00 0.0000000e+00 0.0000000e+00 
0.0000000e+00 0.0000000e+00 0.0000000e+00 
0.0000000e+00 0.0000000e+00 0.0000000e+00 
0.0000000e+00 0.0000000e+00 0.0000000e+00 
0.0000000e+00 0.0000000e+00 0.0000000e+00 
0.0000000e+00 0.0000000e+00 0.0000000e+00 
0.0000000e+00 0.0000000e+00 0.0000000e+00 
0.0000000e+00 0.0000000e+00 0.0000000e+00 
0.0000000e+00 0.0000000e+00 0.0000000e+00 
0.0000000e+00 0.0000000e+00 0.0000000e+00 
0.0000000e+00 0.0000000e+00 0.0000000e+00 
0.0000000e+00 0.0000000e+00 0.0000000e+00 
0.0000000e+00 0.0000000e+00 0.0000000e+00 
0.0000000e+00 0.0000000e+00 0.0000000e+00 
0.0000000e+00 0.0000000e+00 0.0000000e+00 
0.0000000e+00 0.0000000e+00 0.0000000e+00 
0.0000000e+00 0.0000000e+00 0.0000000e+00 
0.0000000e+00 0.0000000e+00 0.0000000e+00 
VON_MISES_STRESS 1 26  float
7.5541304e+09
7.3918336e+09
7.2502482e+09
6.9352223e+09
6.6736108e+09
6.3380214e+09
6.0854554e+09
5.7096105e+09
5.4618962e+09
5.0451031e+09
4.7970540e+09
4.3374710e+09
4.1084659e+09
3.6063793e+09
3.3861468e+09
2.8618637e+09
2.6887293e+09
2.1883515e+09
2.0397108e+09
1.5656525e+09
1.4393944e+09
9.9531578e+08
8.9036774e+08
5.1721434e+08
4.9365798e+08
2.0146765e+08
CELL_DATA 24
FIELD FieldData 0
