# vtk DataFile Version 4.0
vtk output
ASCII
DATASET UNSTRUCTURED_GRID
POINTS 26 float
0.0000000e+00 1.0000000e-01 0.0000000e+00 
0.0000000e+00 0.0000000e+00 0.0000000e+00 
1.4766368e-01 1.0000000e-01 0.0000000e+00 
1.4883940e-01 0.0000000e+00 0.0000000e+00 
3.0036214e-01 1.0000000e-01 0.0000000e+00 
3.0422947e-01 0.0000000e+00 0.0000000e+00 
4.6008557e-01 1.0000000e-01 0.0000000e+00 
4.6697357e-01 0.0000000e+00 0.0000000e+00 
6.2771249e-01 1.0000000e-01 0.0000000e+00 
6.3798475e-01 0.0000000e+00 0.0000000e+00 
8.0424988e-01 1.0000000e-01 0.0000000e+00 
8.1830680e-01 0.0000000e+00 0.0000000e+00 
9.9085975e-01 1.0000000e-01 0.0000000e+00 
1.0091403e+00 0.0000000e+00 0.0000000e+00 
1.1816932e+00 1.0000000e-01 0.0000000e+00 
1.1957501e+00 0.0000000e+00 0.0000000e+00 
1.3620152e+00 1.0000000e-01 0.0000000e+00 
1.3722875e+00 0.0000000e+00 0.0000000e+00 
1.5330265e+00 1.0000000e-01 0.0000000e+00 
1.5399145e+00 0.0000000e+00 0.0000000e+00 
1.6957705e+00 1.0000000e-01 0.0000000e+00 
1.6996379e+00 0.0000000e+00 0.0000000e+00 
1.8511606e+00 1.0000000e-01 0.0000000e+00 
1.8523363e+00 0.0000000e+00 0.0000000e+00 
2.0000000e+00 1.0000000e-01 0.0000000e+00 
2.0000000e+00 0.0000000e+00 0.0000000e+00 

CELLS 24 96
3 25 24 23
3 0 1 2
3 1 3 2
3 2 3 4
3 24 22 23
3 23 22 21
3 3 5 4
3 4 5 6
3 22 20 21
3 21 20 19
3 5 7 6
3 6 7 8
3 20 18 19
3 19 18 17
3 7 9 8
3 8 9 10
3 18 16 17
3 17 16 15
3 9 11 10
3 10 11 12
3 16 14 15
3 15 14 13
3 11 13 12
3 12 13 14

CELL_TYPES 24
5
5
5
5
5
5
5
5
5
5
5
5
5
5
5
5
5
5
5
5
5
5
5
5
POINT_DATA 26
FIELD FieldData 3
DISPLACEMENT 3 26  float
0.0000000e+00 0.0000000e+00 0.0000000e+00 
0.0000000e+00 0.0000000e+00 0.0000000e+00 
6.0326983e-03 -1.1892900e-02 0.0000000e+00 
-8.5641257e-03 -1.0852185e-02 0.0000000e+00 
8.4537640e-03 -4.6262313e-02 0.0000000e+00 
-1.9695297e-02 -4.3258540e-02 0.0000000e+00 
4.2858422e-03 -1.0305759e-01 0.0000000e+00 
-3.6277656e-02 -9.7429894e-02 0.0000000e+00 
-9.1176135e-03 -1.8176015e-01 0.0000000e+00 
-6.0926173e-02 -1.7331000e-01 0.0000000e+00 
-3.3964194e-02 -2.8166869e-01 0.0000000e+00 
-9.5873527e-02 -2.7063987e-01 0.0000000e+00 
-7.1949296e-02 -4.0198919e-01 0.0000000e+00 
-1.4284918e-01 -3.8902655e-01 0.0000000e+00 
-1.2205641e-01 -5.3694826e-01 0.0000000e+00 
-1.9799854e-01 -5.1679599e-01 0.0000000e+00 
-1.7861606e-01 -6.7250615e-01 0.0000000e+00 
-2.5764960e-01 -6.4589262e-01 0.0000000e+00 
-2.3911613e-01 -8.0621141e-01 0.0000000e+00 
-3.1982374e-01 -7.7407640e-01 0.0000000e+00 
-3.0151874e-01 -9.3660945e-01 0.0000000e+00 
-3.8290116e-01 -8.9995664e-01 0.0000000e+00 
-3.6425105e-01 -1.0628794e+00 0.0000000e+00 
-4.4560686e-01 -1.0226942e+00 0.0000000e+00 
-4.2612985e-01 -1.1845865e+00 0.0000000e+00 
-5.0744003e-01 -1.1427869e+00 0.0000000e+00 
REACTION 3 26  float
0.0000000e+00 0.0000000e+00 0.0000000e+00 
0.0000000e+00 0.0000000e+00 0.0000000e+00 
0.0000000e+00 0.0000000e+00 0.0000000e+00 
0.0000000e+00 0.0000000e+00 0.0000000e+00 
0.0000000e+00 0.0000000e+00 0.0000000e+00 
0.0000000e+00 0.0000000e+00 0.0000000e+00 
0.0000000e+00 0.0000000e+00 0.0000000e+00 
0.0000000e+00 0.0000000e+00 0.0000000e+00 
0.0000000e+00 0.0000000e+00 0.0000000e+00 
0.0000000e+00 0.0000000e+00 0.0000000e+00 
0.0000000e+00 0.0000000e+00 0.0000000e+00 
0.0000000e+00 0.0000000e+00 0.0000000e+00 
0.0000000e+00 0.0000000e+00 0.0000000e+00 
0.0000000e+00 0.0000000e+00 0.0000000e+00 
0.0000000e+00 0.0000000e+00 0.0000000e+00 
0.0000000e+00 0.0000000e+00 0.0000000e+00 
0.0000000e+00 0.0000000e+00 0.0000000e+00 
0.0000000e+00 0.0000000e+00 0.0000000e+00 
0.0000000e+00 0.0000000e+00 0.0000000e+00 
0.0000000e+00 0.0000000e+00 0.0000000e+00 
0.0000000e+00 0.0000000e+00 0.0000000e+00 
0.0000000e+00 0.0000000e+00 0.0000000e+00 
0.0000000e+00 0.0000000e+00 0.0000000e+00 
0.0000000e+00 0.0000000e+00 0.0000000e+00 
0.0000000e+00 0.0000000e+00 0.0000000e+00 
0.0000000e+00 0.0000000e+00 0.0000000e+00 
VON_MISES_STRESS 1 26  float
1.4386169e+10
1.4203035e+10
1.3845241e+10
1.3207437e+10
1.2534749e+10
1.1793828e+10
1.1206668e+10
1.0368814e+10
9.8552289e+09
8.9394944e+09
8.4853279e+09
7.5061161e+09
7.1397596e+09
6.1177032e+09
5.8117791e+09
4.7785057e+09
4.5871693e+09
3.6209044e+09
3.4935048e+09
2.5878034e+09
2.5114166e+09
1.6574958e+09
1.6201889e+09
8.4389402e+08
8.5777536e+08
1.2327826e+08
CELL_DATA 24
FIELD FieldData 0
