# vtk DataFile Version 4.0
vtk output
ASCII
DATASET UNSTRUCTURED_GRID
POINTS 26 float
0.0000000e+00 1.0000000e-01 0.0000000e+00 
0.0000000e+00 0.0000000e+00 0.0000000e+00 
1.4766368e-01 1.0000000e-01 0.0000000e+00 
1.4883940e-01 0.0000000e+00 0.0000000e+00 
3.0036214e-01 1.0000000e-01 0.0000000e+00 
3.0422947e-01 0.0000000e+00 0.0000000e+00 
4.6008557e-01 1.0000000e-01 0.0000000e+00 
4.6697357e-01 0.0000000e+00 0.0000000e+00 
6.2771249e-01 1.0000000e-01 0.0000000e+00 
6.3798475e-01 0.0000000e+00 0.0000000e+00 
8.0424988e-01 1.0000000e-01 0.0000000e+00 
8.1830680e-01 0.0000000e+00 0.0000000e+00 
9.9085975e-01 1.0000000e-01 0.0000000e+00 
1.0091403e+00 0.0000000e+00 0.0000000e+00 
1.1816932e+00 1.0000000e-01 0.0000000e+00 
1.1957501e+00 0.0000000e+00 0.0000000e+00 
1.3620152e+00 1.0000000e-01 0.0000000e+00 
1.3722875e+00 0.0000000e+00 0.0000000e+00 
1.5330265e+00 1.0000000e-01 0.0000000e+00 
1.5399145e+00 0.0000000e+00 0.0000000e+00 
1.6957705e+00 1.0000000e-01 0.0000000e+00 
1.6996379e+00 0.0000000e+00 0.0000000e+00 
1.8511606e+00 1.0000000e-01 0.0000000e+00 
1.8523363e+00 0.0000000e+00 0.0000000e+00 
2.0000000e+00 1.0000000e-01 0.0000000e+00 
2.0000000e+00 0.0000000e+00 0.0000000e+00 

CELLS 24 96
3 25 24 23
3 0 1 2
3 1 3 2
3 2 3 4
3 24 22 23
3 23 22 21
3 3 5 4
3 4 5 6
3 22 20 21
3 21 20 19
3 5 7 6
3 6 7 8
3 20 18 19
3 19 18 17
3 7 9 8
3 8 9 10
3 18 16 17
3 17 16 15
3 9 11 10
3 10 11 12
3 16 14 15
3 15 14 13
3 11 13 12
3 12 13 14

CELL_TYPES 24
5
5
5
5
5
5
5
5
5
5
5
5
5
5
5
5
5
5
5
5
5
5
5
5
POINT_DATA 26
FIELD FieldData 3
DISPLACEMENT 3 26  float
0.0000000e+00 0.0000000e+00 0.0000000e+00 
0.0000000e+00 0.0000000e+00 0.0000000e+00 
4.5298361e-03 -8.3432179e-03 0.0000000e+00 
-5.8448734e-03 -7.8747924e-03 0.0000000e+00 
7.1700918e-03 -3.2632131e-02 0.0000000e+00 
-1.3004077e-02 -3.1346880e-02 0.0000000e+00 
6.3853548e-03 -7.3274665e-02 0.0000000e+00 
-2.3010468e-02 -7.0957020e-02 0.0000000e+00 
6.6538184e-04 -1.3048378e-01 0.0000000e+00 
-3.7324958e-02 -1.2714446e-01 0.0000000e+00 
-1.1359077e-02 -2.0435566e-01 0.0000000e+00 
-5.7271387e-02 -2.0023827e-01 0.0000000e+00 
-3.0842865e-02 -2.9486030e-01 0.0000000e+00 
-8.3939493e-02 -2.9043141e-01 0.0000000e+00 
-5.7434786e-02 -3.9799660e-01 0.0000000e+00 
-1.1524522e-01 -3.8906577e-01 0.0000000e+00 
-8.8209637e-02 -5.0300223e-01 0.0000000e+00 
-1.4922808e-01 -4.8984289e-01 0.0000000e+00 
-1.2170440e-01 -6.0765690e-01 0.0000000e+00 
-1.8474233e-01 -5.9075552e-01 0.0000000e+00 
-1.5666392e-01 -7.1048254e-01 0.0000000e+00 
-2.2080566e-01 -6.9043279e-01 0.0000000e+00 
-1.9207634e-01 -8.1051999e-01 0.0000000e+00 
-2.5661620e-01 -7.8795081e-01 0.0000000e+00 
-2.2715753e-01 -9.0715927e-01 0.0000000e+00 
-2.9177806e-01 -8.8346052e-01 0.0000000e+00 
REACTION 3 26  float
0.0000000e+00 0.0000000e+00 0.0000000e+00 
0.0000000e+00 0.0000000e+00 0.0000000e+00 
0.0000000e+00 0.0000000e+00 0.0000000e+00 
0.0000000e+00 0.0000000e+00 0.0000000e+00 
0.0000000e+00 0.0000000e+00 0.0000000e+00 
0.0000000e+00 0.0000000e+00 0.0000000e+00 
0.0000000e+00 0.0000000e+00 0.0000000e+00 
0.0000000e+00 0.0000000e+00 0.0000000e+00 
0.0000000e+00 0.0000000e+00 0.0000000e+00 
0.0000000e+00 0.0000000e+00 0.0000000e+00 
0.0000000e+00 0.0000000e+00 0.0000000e+00 
0.0000000e+00 0.0000000e+00 0.0000000e+00 
0.0000000e+00 0.0000000e+00 0.0000000e+00 
0.0000000e+00 0.0000000e+00 0.0000000e+00 
0.0000000e+00 0.0000000e+00 0.0000000e+00 
0.0000000e+00 0.0000000e+00 0.0000000e+00 
0.0000000e+00 0.0000000e+00 0.0000000e+00 
0.0000000e+00 0.0000000e+00 0.0000000e+00 
0.0000000e+00 0.0000000e+00 0.0000000e+00 
0.0000000e+00 0.0000000e+00 0.0000000e+00 
0.0000000e+00 0.0000000e+00 0.0000000e+00 
0.0000000e+00 0.0000000e+00 0.0000000e+00 
0.0000000e+00 0.0000000e+00 0.0000000e+00 
0.0000000e+00 0.0000000e+00 0.0000000e+00 
0.0000000e+00 0.0000000e+00 0.0000000e+00 
0.0000000e+00 0.0000000e+00 0.0000000e+00 
VON_MISES_STRESS 1 26  float
1.0248789e+10
1.0071399e+10
9.8563604e+09
9.4292244e+09
9.0284390e+09
8.5561073e+09
8.1842340e+09
7.6501309e+09
7.3008128e+09
6.7085532e+09
6.3740692e+09
5.7254922e+09
5.4304005e+09
4.7312317e+09
4.4595599e+09
3.7362028e+09
3.5355569e+09
2.8488980e+09
2.6864699e+09
2.0372052e+09
1.9076644e+09
1.2965151e+09
1.1950738e+09
6.6701446e+08
6.5105005e+08
2.0578606e+08
CELL_DATA 24
FIELD FieldData 0
