# vtk DataFile Version 4.0
vtk output
ASCII
DATASET UNSTRUCTURED_GRID
POINTS 26 float
0.0000000e+00 1.0000000e-01 0.0000000e+00 
0.0000000e+00 0.0000000e+00 0.0000000e+00 
1.4766368e-01 1.0000000e-01 0.0000000e+00 
1.4883940e-01 0.0000000e+00 0.0000000e+00 
3.0036214e-01 1.0000000e-01 0.0000000e+00 
3.0422947e-01 0.0000000e+00 0.0000000e+00 
4.6008557e-01 1.0000000e-01 0.0000000e+00 
4.6697357e-01 0.0000000e+00 0.0000000e+00 
6.2771249e-01 1.0000000e-01 0.0000000e+00 
6.3798475e-01 0.0000000e+00 0.0000000e+00 
8.0424988e-01 1.0000000e-01 0.0000000e+00 
8.1830680e-01 0.0000000e+00 0.0000000e+00 
9.9085975e-01 1.0000000e-01 0.0000000e+00 
1.0091403e+00 0.0000000e+00 0.0000000e+00 
1.1816932e+00 1.0000000e-01 0.0000000e+00 
1.1957501e+00 0.0000000e+00 0.0000000e+00 
1.3620152e+00 1.0000000e-01 0.0000000e+00 
1.3722875e+00 0.0000000e+00 0.0000000e+00 
1.5330265e+00 1.0000000e-01 0.0000000e+00 
1.5399145e+00 0.0000000e+00 0.0000000e+00 
1.6957705e+00 1.0000000e-01 0.0000000e+00 
1.6996379e+00 0.0000000e+00 0.0000000e+00 
1.8511606e+00 1.0000000e-01 0.0000000e+00 
1.8523363e+00 0.0000000e+00 0.0000000e+00 
2.0000000e+00 1.0000000e-01 0.0000000e+00 
2.0000000e+00 0.0000000e+00 0.0000000e+00 

CELLS 24 96
3 25 24 23
3 0 1 2
3 1 3 2
3 2 3 4
3 24 22 23
3 23 22 21
3 3 5 4
3 4 5 6
3 22 20 21
3 21 20 19
3 5 7 6
3 6 7 8
3 20 18 19
3 19 18 17
3 7 9 8
3 8 9 10
3 18 16 17
3 17 16 15
3 9 11 10
3 10 11 12
3 16 14 15
3 15 14 13
3 11 13 12
3 12 13 14

CELL_TYPES 24
5
5
5
5
5
5
5
5
5
5
5
5
5
5
5
5
5
5
5
5
5
5
5
5
POINT_DATA 26
FIELD FieldData 3
DISPLACEMENT 3 26  float
0.0000000e+00 0.0000000e+00 0.0000000e+00 
0.0000000e+00 0.0000000e+00 0.0000000e+00 
5.8696987e-03 -1.1476750e-02 0.0000000e+00 
-8.2401829e-03 -1.0512996e-02 0.0000000e+00 
8.3558057e-03 -4.4680141e-02 0.0000000e+00 
-1.8886451e-02 -4.1907363e-02 0.0000000e+00 
4.6641482e-03 -9.9642947e-02 0.0000000e+00 
-3.4652736e-02 -9.4456524e-02 0.0000000e+00 
-7.7200942e-03 -1.7596447e-01 0.0000000e+00 
-5.8017366e-02 -1.6818871e-01 0.0000000e+00 
-3.0918729e-02 -2.7306443e-01 0.0000000e+00 
-9.1114409e-02 -2.6293853e-01 0.0000000e+00 
-6.6582546e-02 -3.9025784e-01 0.0000000e+00 
-1.3561188e-01 -3.7840086e-01 0.0000000e+00 
-1.1379585e-01 -5.2197057e-01 0.0000000e+00 
-1.8788344e-01 -5.0322461e-01 0.0000000e+00 
-1.6723196e-01 -6.5448821e-01 0.0000000e+00 
-2.4446744e-01 -6.2952256e-01 0.0000000e+00 
-2.2449853e-01 -7.8536022e-01 0.0000000e+00 
-3.0347970e-01 -7.5506091e-01 0.0000000e+00 
-2.8364122e-01 -9.1310906e-01 0.0000000e+00 
-3.6336839e-01 -8.7843460e-01 0.0000000e+00 
-3.4314328e-01 -1.0368830e+00 0.0000000e+00 
-4.2290595e-01 -9.9878174e-01 0.0000000e+00 
-4.0185913e-01 -1.1562159e+00 0.0000000e+00 
-4.8159403e-01 -1.1165550e+00 0.0000000e+00 
REACTION 3 26  float
0.0000000e+00 0.0000000e+00 0.0000000e+00 
0.0000000e+00 0.0000000e+00 0.0000000e+00 
0.0000000e+00 0.0000000e+00 0.0000000e+00 
0.0000000e+00 0.0000000e+00 0.0000000e+00 
0.0000000e+00 0.0000000e+00 0.0000000e+00 
0.0000000e+00 0.0000000e+00 0.0000000e+00 
0.0000000e+00 0.0000000e+00 0.0000000e+00 
0.0000000e+00 0.0000000e+00 0.0000000e+00 
0.0000000e+00 0.0000000e+00 0.0000000e+00 
0.0000000e+00 0.0000000e+00 0.0000000e+00 
0.0000000e+00 0.0000000e+00 0.0000000e+00 
0.0000000e+00 0.0000000e+00 0.0000000e+00 
0.0000000e+00 0.0000000e+00 0.0000000e+00 
0.0000000e+00 0.0000000e+00 0.0000000e+00 
0.0000000e+00 0.0000000e+00 0.0000000e+00 
0.0000000e+00 0.0000000e+00 0.0000000e+00 
0.0000000e+00 0.0000000e+00 0.0000000e+00 
0.0000000e+00 0.0000000e+00 0.0000000e+00 
0.0000000e+00 0.0000000e+00 0.0000000e+00 
0.0000000e+00 0.0000000e+00 0.0000000e+00 
0.0000000e+00 0.0000000e+00 0.0000000e+00 
0.0000000e+00 0.0000000e+00 0.0000000e+00 
0.0000000e+00 0.0000000e+00 0.0000000e+00 
0.0000000e+00 0.0000000e+00 0.0000000e+00 
0.0000000e+00 0.0000000e+00 0.0000000e+00 
0.0000000e+00 0.0000000e+00 0.0000000e+00 
VON_MISES_STRESS 1 26  float
1.3908238e+10
1.3725500e+10
1.3386222e+10
1.2776355e+10
1.2138889e+10
1.1433856e+10
1.0873403e+10
1.0075394e+10
9.5808973e+09
8.7065303e+09
8.2648443e+09
7.3266212e+09
6.9660580e+09
5.9825239e+09
5.6772285e+09
4.6797870e+09
4.4837146e+09
3.5490140e+09
3.4136886e+09
2.5364045e+09
2.4499282e+09
1.6226085e+09
1.5739092e+09
8.2676410e+08
8.3619328e+08
1.3869234e+08
CELL_DATA 24
FIELD FieldData 0
