# vtk DataFile Version 4.0
vtk output
ASCII
DATASET UNSTRUCTURED_GRID
POINTS 26 float
0.0000000e+00 1.0000000e-01 0.0000000e+00 
0.0000000e+00 0.0000000e+00 0.0000000e+00 
1.4766368e-01 1.0000000e-01 0.0000000e+00 
1.4883940e-01 0.0000000e+00 0.0000000e+00 
3.0036214e-01 1.0000000e-01 0.0000000e+00 
3.0422947e-01 0.0000000e+00 0.0000000e+00 
4.6008557e-01 1.0000000e-01 0.0000000e+00 
4.6697357e-01 0.0000000e+00 0.0000000e+00 
6.2771249e-01 1.0000000e-01 0.0000000e+00 
6.3798475e-01 0.0000000e+00 0.0000000e+00 
8.0424988e-01 1.0000000e-01 0.0000000e+00 
8.1830680e-01 0.0000000e+00 0.0000000e+00 
9.9085975e-01 1.0000000e-01 0.0000000e+00 
1.0091403e+00 0.0000000e+00 0.0000000e+00 
1.1816932e+00 1.0000000e-01 0.0000000e+00 
1.1957501e+00 0.0000000e+00 0.0000000e+00 
1.3620152e+00 1.0000000e-01 0.0000000e+00 
1.3722875e+00 0.0000000e+00 0.0000000e+00 
1.5330265e+00 1.0000000e-01 0.0000000e+00 
1.5399145e+00 0.0000000e+00 0.0000000e+00 
1.6957705e+00 1.0000000e-01 0.0000000e+00 
1.6996379e+00 0.0000000e+00 0.0000000e+00 
1.8511606e+00 1.0000000e-01 0.0000000e+00 
1.8523363e+00 0.0000000e+00 0.0000000e+00 
2.0000000e+00 1.0000000e-01 0.0000000e+00 
2.0000000e+00 0.0000000e+00 0.0000000e+00 

CELLS 24 96
3 25 24 23
3 0 1 2
3 1 3 2
3 2 3 4
3 24 22 23
3 23 22 21
3 3 5 4
3 4 5 6
3 22 20 21
3 21 20 19
3 5 7 6
3 6 7 8
3 20 18 19
3 19 18 17
3 7 9 8
3 8 9 10
3 18 16 17
3 17 16 15
3 9 11 10
3 10 11 12
3 16 14 15
3 15 14 13
3 11 13 12
3 12 13 14

CELL_TYPES 24
5
5
5
5
5
5
5
5
5
5
5
5
5
5
5
5
5
5
5
5
5
5
5
5
POINT_DATA 26
FIELD FieldData 3
DISPLACEMENT 3 26  float
0.0000000e+00 0.0000000e+00 0.0000000e+00 
0.0000000e+00 0.0000000e+00 0.0000000e+00 
6.8624960e-03 -1.4167643e-02 0.0000000e+00 
-1.0354775e-02 -1.2664410e-02 0.0000000e+00 
8.7532597e-03 -5.4820690e-02 0.0000000e+00 
-2.4204679e-02 -5.0435621e-02 0.0000000e+00 
1.6590343e-03 -1.2129950e-01 0.0000000e+00 
-4.5394305e-02 -1.1306491e-01 0.0000000e+00 
-1.7736007e-02 -2.1229644e-01 0.0000000e+00 
-7.7256143e-02 -1.9991755e-01 0.0000000e+00 
-5.2007254e-02 -3.2634565e-01 0.0000000e+00 
-1.2248727e-01 -3.1012866e-01 0.0000000e+00 
-1.0297526e-01 -4.6200529e-01 0.0000000e+00 
-1.8305916e-01 -4.4276601e-01 0.0000000e+00 
-1.6897237e-01 -6.1248994e-01 0.0000000e+00 
-2.5380191e-01 -5.8455491e-01 0.0000000e+00 
-2.4243125e-01 -7.6226521e-01 0.0000000e+00 
-3.2989463e-01 -7.2669572e-01 0.0000000e+00 
-3.2023665e-01 -9.0898341e-01 0.0000000e+00 
-4.0888482e-01 -8.6699891e-01 0.0000000e+00 
-3.9995995e-01 -1.0513884e+00 0.0000000e+00 
-4.8883483e-01 -1.0042118e+00 0.0000000e+00 
-4.7978616e-01 -1.1888744e+00 0.0000000e+00 
-5.6826365e-01 -1.1376592e+00 0.0000000e+00 
-5.5838150e-01 -1.3212054e+00 0.0000000e+00 
-6.4670938e-01 -1.2680886e+00 0.0000000e+00 
REACTION 3 26  float
0.0000000e+00 0.0000000e+00 0.0000000e+00 
0.0000000e+00 0.0000000e+00 0.0000000e+00 
0.0000000e+00 0.0000000e+00 0.0000000e+00 
0.0000000e+00 0.0000000e+00 0.0000000e+00 
0.0000000e+00 0.0000000e+00 0.0000000e+00 
0.0000000e+00 0.0000000e+00 0.0000000e+00 
0.0000000e+00 0.0000000e+00 0.0000000e+00 
0.0000000e+00 0.0000000e+00 0.0000000e+00 
0.0000000e+00 0.0000000e+00 0.0000000e+00 
0.0000000e+00 0.0000000e+00 0.0000000e+00 
0.0000000e+00 0.0000000e+00 0.0000000e+00 
0.0000000e+00 0.0000000e+00 0.0000000e+00 
0.0000000e+00 0.0000000e+00 0.0000000e+00 
0.0000000e+00 0.0000000e+00 0.0000000e+00 
0.0000000e+00 0.0000000e+00 0.0000000e+00 
0.0000000e+00 0.0000000e+00 0.0000000e+00 
0.0000000e+00 0.0000000e+00 0.0000000e+00 
0.0000000e+00 0.0000000e+00 0.0000000e+00 
0.0000000e+00 0.0000000e+00 0.0000000e+00 
0.0000000e+00 0.0000000e+00 0.0000000e+00 
0.0000000e+00 0.0000000e+00 0.0000000e+00 
0.0000000e+00 0.0000000e+00 0.0000000e+00 
0.0000000e+00 0.0000000e+00 0.0000000e+00 
0.0000000e+00 0.0000000e+00 0.0000000e+00 
0.0000000e+00 0.0000000e+00 0.0000000e+00 
0.0000000e+00 0.0000000e+00 0.0000000e+00 
VON_MISES_STRESS 1 26  float
1.6965772e+10
1.6777880e+10
1.6310287e+10
1.5499623e+10
1.4619107e+10
1.3657052e+10
1.2918966e+10
1.1840654e+10
1.1226225e+10
1.0067072e+10
9.5547136e+09
8.3411830e+09
7.9574989e+09
6.7226460e+09
6.4308644e+09
5.2051784e+09
5.0577802e+09
3.9257587e+09
3.8600215e+09
2.8079880e+09
2.8048947e+09
1.8167753e+09
1.8597292e+09
9.2394611e+08
9.6462202e+08
1.2733034e+07
CELL_DATA 24
FIELD FieldData 0
