# vtk DataFile Version 4.0
vtk output
ASCII
DATASET UNSTRUCTURED_GRID
POINTS 26 float
0.0000000e+00 1.0000000e-01 0.0000000e+00 
0.0000000e+00 0.0000000e+00 0.0000000e+00 
1.4766368e-01 1.0000000e-01 0.0000000e+00 
1.4883940e-01 0.0000000e+00 0.0000000e+00 
3.0036214e-01 1.0000000e-01 0.0000000e+00 
3.0422947e-01 0.0000000e+00 0.0000000e+00 
4.6008557e-01 1.0000000e-01 0.0000000e+00 
4.6697357e-01 0.0000000e+00 0.0000000e+00 
6.2771249e-01 1.0000000e-01 0.0000000e+00 
6.3798475e-01 0.0000000e+00 0.0000000e+00 
8.0424988e-01 1.0000000e-01 0.0000000e+00 
8.1830680e-01 0.0000000e+00 0.0000000e+00 
9.9085975e-01 1.0000000e-01 0.0000000e+00 
1.0091403e+00 0.0000000e+00 0.0000000e+00 
1.1816932e+00 1.0000000e-01 0.0000000e+00 
1.1957501e+00 0.0000000e+00 0.0000000e+00 
1.3620152e+00 1.0000000e-01 0.0000000e+00 
1.3722875e+00 0.0000000e+00 0.0000000e+00 
1.5330265e+00 1.0000000e-01 0.0000000e+00 
1.5399145e+00 0.0000000e+00 0.0000000e+00 
1.6957705e+00 1.0000000e-01 0.0000000e+00 
1.6996379e+00 0.0000000e+00 0.0000000e+00 
1.8511606e+00 1.0000000e-01 0.0000000e+00 
1.8523363e+00 0.0000000e+00 0.0000000e+00 
2.0000000e+00 1.0000000e-01 0.0000000e+00 
2.0000000e+00 0.0000000e+00 0.0000000e+00 

CELLS 24 96
3 25 24 23
3 0 1 2
3 1 3 2
3 2 3 4
3 24 22 23
3 23 22 21
3 3 5 4
3 4 5 6
3 22 20 21
3 21 20 19
3 5 7 6
3 6 7 8
3 20 18 19
3 19 18 17
3 7 9 8
3 8 9 10
3 18 16 17
3 17 16 15
3 9 11 10
3 10 11 12
3 16 14 15
3 15 14 13
3 11 13 12
3 12 13 14

CELL_TYPES 24
5
5
5
5
5
5
5
5
5
5
5
5
5
5
5
5
5
5
5
5
5
5
5
5
POINT_DATA 26
FIELD FieldData 3
DISPLACEMENT 3 26  float
0.0000000e+00 0.0000000e+00 0.0000000e+00 
0.0000000e+00 0.0000000e+00 0.0000000e+00 
2.0825942e-03 -3.5257710e-03 0.0000000e+00 
-2.3568969e-03 -3.4915514e-03 0.0000000e+00 
3.7471598e-03 -1.3814803e-02 0.0000000e+00 
-4.9255104e-03 -1.3793500e-02 0.0000000e+00 
4.7351117e-03 -3.1181883e-02 0.0000000e+00 
-7.9924138e-03 -3.1275254e-02 0.0000000e+00 
4.7371220e-03 -5.5941727e-02 0.0000000e+00 
-1.1835340e-02 -5.6304298e-02 0.0000000e+00 
3.4512514e-03 -8.8388525e-02 0.0000000e+00 
-1.6712138e-02 -8.9227863e-02 0.0000000e+00 
6.0048525e-04 -1.2876426e-01 0.0000000e+00 
-2.2835990e-02 -1.3033155e-01 0.0000000e+00 
-3.7820842e-03 -1.7545466e-01 0.0000000e+00 
-2.9721372e-02 -1.7577358e-01 0.0000000e+00 
-9.2404615e-03 -2.2361964e-01 0.0000000e+00 
-3.7028976e-02 -2.2264667e-01 0.0000000e+00 
-1.5461745e-02 -2.7212459e-01 0.0000000e+00 
-4.4537134e-02 -2.6991343e-01 0.0000000e+00 
-2.2161169e-02 -3.2014257e-01 0.0000000e+00 
-5.2049518e-02 -3.1681210e-01 0.0000000e+00 
-2.9099245e-02 -3.6708453e-01 0.0000000e+00 
-5.9402332e-02 -3.6279052e-01 0.0000000e+00 
-3.6086004e-02 -4.1253945e-01 0.0000000e+00 
-6.6493377e-02 -4.0779567e-01 0.0000000e+00 
REACTION 3 26  float
0.0000000e+00 0.0000000e+00 0.0000000e+00 
0.0000000e+00 0.0000000e+00 0.0000000e+00 
0.0000000e+00 0.0000000e+00 0.0000000e+00 
0.0000000e+00 0.0000000e+00 0.0000000e+00 
0.0000000e+00 0.0000000e+00 0.0000000e+00 
0.0000000e+00 0.0000000e+00 0.0000000e+00 
0.0000000e+00 0.0000000e+00 0.0000000e+00 
0.0000000e+00 0.0000000e+00 0.0000000e+00 
0.0000000e+00 0.0000000e+00 0.0000000e+00 
0.0000000e+00 0.0000000e+00 0.0000000e+00 
0.0000000e+00 0.0000000e+00 0.0000000e+00 
0.0000000e+00 0.0000000e+00 0.0000000e+00 
0.0000000e+00 0.0000000e+00 0.0000000e+00 
0.0000000e+00 0.0000000e+00 0.0000000e+00 
0.0000000e+00 0.0000000e+00 0.0000000e+00 
0.0000000e+00 0.0000000e+00 0.0000000e+00 
0.0000000e+00 0.0000000e+00 0.0000000e+00 
0.0000000e+00 0.0000000e+00 0.0000000e+00 
0.0000000e+00 0.0000000e+00 0.0000000e+00 
0.0000000e+00 0.0000000e+00 0.0000000e+00 
0.0000000e+00 0.0000000e+00 0.0000000e+00 
0.0000000e+00 0.0000000e+00 0.0000000e+00 
0.0000000e+00 0.0000000e+00 0.0000000e+00 
0.0000000e+00 0.0000000e+00 0.0000000e+00 
0.0000000e+00 0.0000000e+00 0.0000000e+00 
0.0000000e+00 0.0000000e+00 0.0000000e+00 
VON_MISES_STRESS 1 26  float
4.4164767e+09
4.2955044e+09
4.2229353e+09
4.0319503e+09
3.8993917e+09
3.7045123e+09
3.5701486e+09
3.3560177e+09
3.2176612e+09
2.9823462e+09
2.8372083e+09
2.5780470e+09
2.4380754e+09
2.1530202e+09
2.0132707e+09
1.7144060e+09
1.5988828e+09
1.3132973e+09
1.2097901e+09
9.3971866e+08
8.4812557e+08
5.9741446e+08
5.1912355e+08
3.1477027e+08
2.9384758e+08
1.4712331e+08
CELL_DATA 24
FIELD FieldData 0
