# vtk DataFile Version 4.0
vtk output
ASCII
DATASET UNSTRUCTURED_GRID
POINTS 26 float
0.0000000e+00 1.0000000e-01 0.0000000e+00 
0.0000000e+00 0.0000000e+00 0.0000000e+00 
1.4766368e-01 1.0000000e-01 0.0000000e+00 
1.4883940e-01 0.0000000e+00 0.0000000e+00 
3.0036214e-01 1.0000000e-01 0.0000000e+00 
3.0422947e-01 0.0000000e+00 0.0000000e+00 
4.6008557e-01 1.0000000e-01 0.0000000e+00 
4.6697357e-01 0.0000000e+00 0.0000000e+00 
6.2771249e-01 1.0000000e-01 0.0000000e+00 
6.3798475e-01 0.0000000e+00 0.0000000e+00 
8.0424988e-01 1.0000000e-01 0.0000000e+00 
8.1830680e-01 0.0000000e+00 0.0000000e+00 
9.9085975e-01 1.0000000e-01 0.0000000e+00 
1.0091403e+00 0.0000000e+00 0.0000000e+00 
1.1816932e+00 1.0000000e-01 0.0000000e+00 
1.1957501e+00 0.0000000e+00 0.0000000e+00 
1.3620152e+00 1.0000000e-01 0.0000000e+00 
1.3722875e+00 0.0000000e+00 0.0000000e+00 
1.5330265e+00 1.0000000e-01 0.0000000e+00 
1.5399145e+00 0.0000000e+00 0.0000000e+00 
1.6957705e+00 1.0000000e-01 0.0000000e+00 
1.6996379e+00 0.0000000e+00 0.0000000e+00 
1.8511606e+00 1.0000000e-01 0.0000000e+00 
1.8523363e+00 0.0000000e+00 0.0000000e+00 
2.0000000e+00 1.0000000e-01 0.0000000e+00 
2.0000000e+00 0.0000000e+00 0.0000000e+00 

CELLS 24 96
3 25 24 23
3 0 1 2
3 1 3 2
3 2 3 4
3 24 22 23
3 23 22 21
3 3 5 4
3 4 5 6
3 22 20 21
3 21 20 19
3 5 7 6
3 6 7 8
3 20 18 19
3 19 18 17
3 7 9 8
3 8 9 10
3 18 16 17
3 17 16 15
3 9 11 10
3 10 11 12
3 16 14 15
3 15 14 13
3 11 13 12
3 12 13 14

CELL_TYPES 24
5
5
5
5
5
5
5
5
5
5
5
5
5
5
5
5
5
5
5
5
5
5
5
5
POINT_DATA 26
FIELD FieldData 3
DISPLACEMENT 3 26  float
0.0000000e+00 0.0000000e+00 0.0000000e+00 
0.0000000e+00 0.0000000e+00 0.0000000e+00 
5.7563349e-03 -1.1192446e-02 0.0000000e+00 
-8.0195870e-03 -1.0279832e-02 0.0000000e+00 
8.2810111e-03 -4.3596551e-02 0.0000000e+00 
-1.8337157e-02 -4.0977385e-02 0.0000000e+00 
4.9033426e-03 -9.7297296e-02 0.0000000e+00 
-3.3551745e-02 -9.2405081e-02 0.0000000e+00 
-6.8005542e-03 -1.7196962e-01 0.0000000e+00 
-5.6047935e-02 -1.6464487e-01 0.0000000e+00 
-2.8891223e-02 -2.6711208e-01 0.0000000e+00 
-8.7890550e-02 -2.5759181e-01 0.0000000e+00 
-6.2985510e-02 -3.8211173e-01 0.0000000e+00 
-1.3070299e-01 -3.7099838e-01 0.0000000e+00 
-1.0823314e-01 -5.1153249e-01 0.0000000e+00 
-1.8101211e-01 -4.9373907e-01 0.0000000e+00 
-1.5953958e-01 -6.4189154e-01 0.0000000e+00 
-2.3549923e-01 -6.1804748e-01 0.0000000e+00 
-2.1459547e-01 -7.7074277e-01 0.0000000e+00 
-2.9234570e-01 -7.4169725e-01 0.0000000e+00 
-2.7150527e-01 -8.9659572e-01 0.0000000e+00 
-3.5004759e-01 -8.6327565e-01 0.0000000e+00 
-3.2879242e-01 -1.0185794e+00 0.0000000e+00 
-4.0741125e-01 -9.8190701e-01 0.0000000e+00 
-3.8533875e-01 -1.1362078e+00 0.0000000e+00 
-4.6394163e-01 -1.0980134e+00 0.0000000e+00 
REACTION 3 26  float
0.0000000e+00 0.0000000e+00 0.0000000e+00 
0.0000000e+00 0.0000000e+00 0.0000000e+00 
0.0000000e+00 0.0000000e+00 0.0000000e+00 
0.0000000e+00 0.0000000e+00 0.0000000e+00 
0.0000000e+00 0.0000000e+00 0.0000000e+00 
0.0000000e+00 0.0000000e+00 0.0000000e+00 
0.0000000e+00 0.0000000e+00 0.0000000e+00 
0.0000000e+00 0.0000000e+00 0.0000000e+00 
0.0000000e+00 0.0000000e+00 0.0000000e+00 
0.0000000e+00 0.0000000e+00 0.0000000e+00 
0.0000000e+00 0.0000000e+00 0.0000000e+00 
0.0000000e+00 0.0000000e+00 0.0000000e+00 
0.0000000e+00 0.0000000e+00 0.0000000e+00 
0.0000000e+00 0.0000000e+00 0.0000000e+00 
0.0000000e+00 0.0000000e+00 0.0000000e+00 
0.0000000e+00 0.0000000e+00 0.0000000e+00 
0.0000000e+00 0.0000000e+00 0.0000000e+00 
0.0000000e+00 0.0000000e+00 0.0000000e+00 
0.0000000e+00 0.0000000e+00 0.0000000e+00 
0.0000000e+00 0.0000000e+00 0.0000000e+00 
0.0000000e+00 0.0000000e+00 0.0000000e+00 
0.0000000e+00 0.0000000e+00 0.0000000e+00 
0.0000000e+00 0.0000000e+00 0.0000000e+00 
0.0000000e+00 0.0000000e+00 0.0000000e+00 
0.0000000e+00 0.0000000e+00 0.0000000e+00 
0.0000000e+00 0.0000000e+00 0.0000000e+00 
VON_MISES_STRESS 1 26  float
1.3580642e+10
1.3398153e+10
1.3071246e+10
1.2479887e+10
1.1865977e+10
1.1184714e+10
1.0642311e+10
9.8708234e+09
9.3894339e+09
8.5427743e+09
8.1098962e+09
7.1993324e+09
6.8431565e+09
5.8858506e+09
5.5815322e+09
4.6086651e+09
4.4099333e+09
3.4970030e+09
3.3568573e+09
2.4992627e+09
2.4064886e+09
1.5976663e+09
1.5417791e+09
8.1454810e+08
8.2105677e+08
1.4835043e+08
CELL_DATA 24
FIELD FieldData 0
