# vtk DataFile Version 4.0
vtk output
ASCII
DATASET UNSTRUCTURED_GRID
POINTS 26 float
0.0000000e+00 1.0000000e-01 0.0000000e+00 
0.0000000e+00 0.0000000e+00 0.0000000e+00 
1.4766368e-01 1.0000000e-01 0.0000000e+00 
1.4883940e-01 0.0000000e+00 0.0000000e+00 
3.0036214e-01 1.0000000e-01 0.0000000e+00 
3.0422947e-01 0.0000000e+00 0.0000000e+00 
4.6008557e-01 1.0000000e-01 0.0000000e+00 
4.6697357e-01 0.0000000e+00 0.0000000e+00 
6.2771249e-01 1.0000000e-01 0.0000000e+00 
6.3798475e-01 0.0000000e+00 0.0000000e+00 
8.0424988e-01 1.0000000e-01 0.0000000e+00 
8.1830680e-01 0.0000000e+00 0.0000000e+00 
9.9085975e-01 1.0000000e-01 0.0000000e+00 
1.0091403e+00 0.0000000e+00 0.0000000e+00 
1.1816932e+00 1.0000000e-01 0.0000000e+00 
1.1957501e+00 0.0000000e+00 0.0000000e+00 
1.3620152e+00 1.0000000e-01 0.0000000e+00 
1.3722875e+00 0.0000000e+00 0.0000000e+00 
1.5330265e+00 1.0000000e-01 0.0000000e+00 
1.5399145e+00 0.0000000e+00 0.0000000e+00 
1.6957705e+00 1.0000000e-01 0.0000000e+00 
1.6996379e+00 0.0000000e+00 0.0000000e+00 
1.8511606e+00 1.0000000e-01 0.0000000e+00 
1.8523363e+00 0.0000000e+00 0.0000000e+00 
2.0000000e+00 1.0000000e-01 0.0000000e+00 
2.0000000e+00 0.0000000e+00 0.0000000e+00 

CELLS 24 96
3 25 24 23
3 0 1 2
3 1 3 2
3 2 3 4
3 24 22 23
3 23 22 21
3 3 5 4
3 4 5 6
3 22 20 21
3 21 20 19
3 5 7 6
3 6 7 8
3 20 18 19
3 19 18 17
3 7 9 8
3 8 9 10
3 18 16 17
3 17 16 15
3 9 11 10
3 10 11 12
3 16 14 15
3 15 14 13
3 11 13 12
3 12 13 14

CELL_TYPES 24
5
5
5
5
5
5
5
5
5
5
5
5
5
5
5
5
5
5
5
5
5
5
5
5
POINT_DATA 26
FIELD FieldData 3
DISPLACEMENT 3 26  float
0.0000000e+00 0.0000000e+00 0.0000000e+00 
0.0000000e+00 0.0000000e+00 0.0000000e+00 
6.8220831e-03 -1.4049961e-02 0.0000000e+00 
-1.0261379e-02 -1.2572311e-02 0.0000000e+00 
8.7473197e-03 -5.4381914e-02 0.0000000e+00 
-2.3968186e-02 -5.0072856e-02 0.0000000e+00 
1.8168880e-03 -1.2037422e-01 0.0000000e+00 
-4.4914518e-02 -1.1228157e-01 0.0000000e+00 
-1.7253254e-02 -2.1076578e-01 0.0000000e+00 
-7.6397531e-02 -1.9859824e-01 0.0000000e+00 
-5.1024254e-02 -3.2413393e-01 0.0000000e+00 
-1.2109389e-01 -3.0819273e-01 0.0000000e+00 
-1.0131542e-01 -4.5907167e-01 0.0000000e+00 
-1.8096678e-01 -4.4016245e-01 0.0000000e+00 
-1.6649659e-01 -6.0884213e-01 0.0000000e+00 
-2.5091657e-01 -5.8130848e-01 0.0000000e+00 
-2.3909830e-01 -7.5797677e-01 0.0000000e+00 
-3.2618088e-01 -7.2286260e-01 0.0000000e+00 
-3.1603387e-01 -9.0411824e-01 0.0000000e+00 
-4.0432969e-01 -8.6262947e-01 0.0000000e+00 
-3.9489180e-01 -1.0459977e+00 0.0000000e+00 
-4.8343924e-01 -9.9934721e-01 0.0000000e+00 
-4.7386679e-01 -1.1829967e+00 0.0000000e+00 
-5.6203687e-01 -1.1323309e+00 0.0000000e+00 
-5.5163050e-01 -1.3148682e+00 0.0000000e+00 
-6.3965642e-01 -1.2623153e+00 0.0000000e+00 
REACTION 3 26  float
0.0000000e+00 0.0000000e+00 0.0000000e+00 
0.0000000e+00 0.0000000e+00 0.0000000e+00 
0.0000000e+00 0.0000000e+00 0.0000000e+00 
0.0000000e+00 0.0000000e+00 0.0000000e+00 
0.0000000e+00 0.0000000e+00 0.0000000e+00 
0.0000000e+00 0.0000000e+00 0.0000000e+00 
0.0000000e+00 0.0000000e+00 0.0000000e+00 
0.0000000e+00 0.0000000e+00 0.0000000e+00 
0.0000000e+00 0.0000000e+00 0.0000000e+00 
0.0000000e+00 0.0000000e+00 0.0000000e+00 
0.0000000e+00 0.0000000e+00 0.0000000e+00 
0.0000000e+00 0.0000000e+00 0.0000000e+00 
0.0000000e+00 0.0000000e+00 0.0000000e+00 
0.0000000e+00 0.0000000e+00 0.0000000e+00 
0.0000000e+00 0.0000000e+00 0.0000000e+00 
0.0000000e+00 0.0000000e+00 0.0000000e+00 
0.0000000e+00 0.0000000e+00 0.0000000e+00 
0.0000000e+00 0.0000000e+00 0.0000000e+00 
0.0000000e+00 0.0000000e+00 0.0000000e+00 
0.0000000e+00 0.0000000e+00 0.0000000e+00 
0.0000000e+00 0.0000000e+00 0.0000000e+00 
0.0000000e+00 0.0000000e+00 0.0000000e+00 
0.0000000e+00 0.0000000e+00 0.0000000e+00 
0.0000000e+00 0.0000000e+00 0.0000000e+00 
0.0000000e+00 0.0000000e+00 0.0000000e+00 
0.0000000e+00 0.0000000e+00 0.0000000e+00 
VON_MISES_STRESS 1 26  float
1.6833663e+10
1.6646184e+10
1.6184632e+10
1.5383824e+10
1.4514681e+10
1.3565161e+10
1.2835045e+10
1.1770143e+10
1.1160733e+10
1.0014892e+10
9.5050772e+09
8.3040783e+09
7.9206589e+09
6.6968858e+09
6.4036219e+09
5.1877294e+09
5.0373028e+09
3.9135626e+09
3.8438781e+09
2.7990259e+09
2.7913994e+09
1.8097130e+09
1.8477878e+09
9.2027219e+08
9.5951520e+08
1.9517090e+07
CELL_DATA 24
FIELD FieldData 0
