# vtk DataFile Version 4.0
vtk output
ASCII
DATASET UNSTRUCTURED_GRID
POINTS 26 float
0.0000000e+00 1.0000000e-01 0.0000000e+00 
0.0000000e+00 0.0000000e+00 0.0000000e+00 
1.4766368e-01 1.0000000e-01 0.0000000e+00 
1.4883940e-01 0.0000000e+00 0.0000000e+00 
3.0036214e-01 1.0000000e-01 0.0000000e+00 
3.0422947e-01 0.0000000e+00 0.0000000e+00 
4.6008557e-01 1.0000000e-01 0.0000000e+00 
4.6697357e-01 0.0000000e+00 0.0000000e+00 
6.2771249e-01 1.0000000e-01 0.0000000e+00 
6.3798475e-01 0.0000000e+00 0.0000000e+00 
8.0424988e-01 1.0000000e-01 0.0000000e+00 
8.1830680e-01 0.0000000e+00 0.0000000e+00 
9.9085975e-01 1.0000000e-01 0.0000000e+00 
1.0091403e+00 0.0000000e+00 0.0000000e+00 
1.1816932e+00 1.0000000e-01 0.0000000e+00 
1.1957501e+00 0.0000000e+00 0.0000000e+00 
1.3620152e+00 1.0000000e-01 0.0000000e+00 
1.3722875e+00 0.0000000e+00 0.0000000e+00 
1.5330265e+00 1.0000000e-01 0.0000000e+00 
1.5399145e+00 0.0000000e+00 0.0000000e+00 
1.6957705e+00 1.0000000e-01 0.0000000e+00 
1.6996379e+00 0.0000000e+00 0.0000000e+00 
1.8511606e+00 1.0000000e-01 0.0000000e+00 
1.8523363e+00 0.0000000e+00 0.0000000e+00 
2.0000000e+00 1.0000000e-01 0.0000000e+00 
2.0000000e+00 0.0000000e+00 0.0000000e+00 

CELLS 24 96
3 25 24 23
3 0 1 2
3 1 3 2
3 2 3 4
3 24 22 23
3 23 22 21
3 3 5 4
3 4 5 6
3 22 20 21
3 21 20 19
3 5 7 6
3 6 7 8
3 20 18 19
3 19 18 17
3 7 9 8
3 8 9 10
3 18 16 17
3 17 16 15
3 9 11 10
3 10 11 12
3 16 14 15
3 15 14 13
3 11 13 12
3 12 13 14

CELL_TYPES 24
5
5
5
5
5
5
5
5
5
5
5
5
5
5
5
5
5
5
5
5
5
5
5
5
POINT_DATA 26
FIELD FieldData 3
DISPLACEMENT 3 26  float
0.0000000e+00 0.0000000e+00 0.0000000e+00 
0.0000000e+00 0.0000000e+00 0.0000000e+00 
1.8272356e-03 -3.0703440e-03 0.0000000e+00 
-2.0421492e-03 -3.0545918e-03 0.0000000e+00 
3.3217620e-03 -1.2028421e-02 0.0000000e+00 
-4.2374218e-03 -1.2054594e-02 0.0000000e+00 
4.2927219e-03 -2.7153721e-02 0.0000000e+00 
-6.8025789e-03 -2.7327854e-02 0.0000000e+00 
4.5022466e-03 -4.8731454e-02 0.0000000e+00 
-9.9468017e-03 -4.9202416e-02 0.0000000e+00 
3.7166809e-03 -7.7030979e-02 0.0000000e+00 
-1.3863537e-02 -7.7990010e-02 0.0000000e+00 
1.7200093e-03 -1.1227694e-01 0.0000000e+00 
-1.8711032e-02 -1.1394844e-01 0.0000000e+00 
-1.4637910e-03 -1.5306893e-01 0.0000000e+00 
-2.4100482e-02 -1.5372059e-01 0.0000000e+00 
-5.5067502e-03 -1.9518174e-01 0.0000000e+00 
-2.9781634e-02 -1.9476263e-01 0.0000000e+00 
-1.0166212e-02 -2.3761822e-01 0.0000000e+00 
-3.5588171e-02 -2.3616104e-01 0.0000000e+00 
-1.5220241e-02 -2.7964789e-01 0.0000000e+00 
-4.1372810e-02 -2.7724272e-01 0.0000000e+00 
-2.0481616e-02 -3.2074791e-01 0.0000000e+00 
-4.7012758e-02 -3.1751817e-01 0.0000000e+00 
-2.5801701e-02 -3.6055186e-01 0.0000000e+00 
-5.2428912e-02 -3.5693398e-01 0.0000000e+00 
REACTION 3 26  float
0.0000000e+00 0.0000000e+00 0.0000000e+00 
0.0000000e+00 0.0000000e+00 0.0000000e+00 
0.0000000e+00 0.0000000e+00 0.0000000e+00 
0.0000000e+00 0.0000000e+00 0.0000000e+00 
0.0000000e+00 0.0000000e+00 0.0000000e+00 
0.0000000e+00 0.0000000e+00 0.0000000e+00 
0.0000000e+00 0.0000000e+00 0.0000000e+00 
0.0000000e+00 0.0000000e+00 0.0000000e+00 
0.0000000e+00 0.0000000e+00 0.0000000e+00 
0.0000000e+00 0.0000000e+00 0.0000000e+00 
0.0000000e+00 0.0000000e+00 0.0000000e+00 
0.0000000e+00 0.0000000e+00 0.0000000e+00 
0.0000000e+00 0.0000000e+00 0.0000000e+00 
0.0000000e+00 0.0000000e+00 0.0000000e+00 
0.0000000e+00 0.0000000e+00 0.0000000e+00 
0.0000000e+00 0.0000000e+00 0.0000000e+00 
0.0000000e+00 0.0000000e+00 0.0000000e+00 
0.0000000e+00 0.0000000e+00 0.0000000e+00 
0.0000000e+00 0.0000000e+00 0.0000000e+00 
0.0000000e+00 0.0000000e+00 0.0000000e+00 
0.0000000e+00 0.0000000e+00 0.0000000e+00 
0.0000000e+00 0.0000000e+00 0.0000000e+00 
0.0000000e+00 0.0000000e+00 0.0000000e+00 
0.0000000e+00 0.0000000e+00 0.0000000e+00 
0.0000000e+00 0.0000000e+00 0.0000000e+00 
0.0000000e+00 0.0000000e+00 0.0000000e+00 
VON_MISES_STRESS 1 26  float
3.8526963e+09
3.7426619e+09
3.6808259e+09
3.5125601e+09
3.3998415e+09
3.2294029e+09
3.1140923e+09
2.9275894e+09
2.8078234e+09
2.6033969e+09
2.4767839e+09
2.2519204e+09
2.1289663e+09
1.8815858e+09
1.7581565e+09
1.4988095e+09
1.3960406e+09
1.1483131e+09
1.0557012e+09
8.2162272e+08
7.3924294e+08
5.2238490e+08
4.5179462e+08
2.7598867e+08
2.5671862e+08
1.3247313e+08
CELL_DATA 24
FIELD FieldData 0
