# vtk DataFile Version 4.0
vtk output
ASCII
DATASET UNSTRUCTURED_GRID
POINTS 26 float
0.0000000e+00 1.0000000e-01 0.0000000e+00 
0.0000000e+00 0.0000000e+00 0.0000000e+00 
1.4766368e-01 1.0000000e-01 0.0000000e+00 
1.4883940e-01 0.0000000e+00 0.0000000e+00 
3.0036214e-01 1.0000000e-01 0.0000000e+00 
3.0422947e-01 0.0000000e+00 0.0000000e+00 
4.6008557e-01 1.0000000e-01 0.0000000e+00 
4.6697357e-01 0.0000000e+00 0.0000000e+00 
6.2771249e-01 1.0000000e-01 0.0000000e+00 
6.3798475e-01 0.0000000e+00 0.0000000e+00 
8.0424988e-01 1.0000000e-01 0.0000000e+00 
8.1830680e-01 0.0000000e+00 0.0000000e+00 
9.9085975e-01 1.0000000e-01 0.0000000e+00 
1.0091403e+00 0.0000000e+00 0.0000000e+00 
1.1816932e+00 1.0000000e-01 0.0000000e+00 
1.1957501e+00 0.0000000e+00 0.0000000e+00 
1.3620152e+00 1.0000000e-01 0.0000000e+00 
1.3722875e+00 0.0000000e+00 0.0000000e+00 
1.5330265e+00 1.0000000e-01 0.0000000e+00 
1.5399145e+00 0.0000000e+00 0.0000000e+00 
1.6957705e+00 1.0000000e-01 0.0000000e+00 
1.6996379e+00 0.0000000e+00 0.0000000e+00 
1.8511606e+00 1.0000000e-01 0.0000000e+00 
1.8523363e+00 0.0000000e+00 0.0000000e+00 
2.0000000e+00 1.0000000e-01 0.0000000e+00 
2.0000000e+00 0.0000000e+00 0.0000000e+00 

CELLS 24 96
3 25 24 23
3 0 1 2
3 1 3 2
3 2 3 4
3 24 22 23
3 23 22 21
3 3 5 4
3 4 5 6
3 22 20 21
3 21 20 19
3 5 7 6
3 6 7 8
3 20 18 19
3 19 18 17
3 7 9 8
3 8 9 10
3 18 16 17
3 17 16 15
3 9 11 10
3 10 11 12
3 16 14 15
3 15 14 13
3 11 13 12
3 12 13 14

CELL_TYPES 24
5
5
5
5
5
5
5
5
5
5
5
5
5
5
5
5
5
5
5
5
5
5
5
5
POINT_DATA 26
FIELD FieldData 3
DISPLACEMENT 3 26  float
0.0000000e+00 0.0000000e+00 0.0000000e+00 
0.0000000e+00 0.0000000e+00 0.0000000e+00 
7.3729772e-03 -1.5728578e-02 0.0000000e+00 
-1.1600498e-02 -1.3870147e-02 0.0000000e+00 
8.7372931e-03 -6.0596272e-02 0.0000000e+00 
-2.7368264e-02 -5.5161647e-02 0.0000000e+00 
-6.4212811e-04 -1.3337116e-01 0.0000000e+00 
-5.1819880e-02 -1.2319602e-01 0.0000000e+00 
-2.4463478e-02 -2.3207517e-01 0.0000000e+00 
-8.8730358e-02 -2.1683820e-01 0.0000000e+00 
-6.5434940e-02 -3.5464311e-01 0.0000000e+00 
-1.4102432e-01 -3.3473635e-01 0.0000000e+00 
-1.2533836e-01 -4.9916932e-01 0.0000000e+00 
-2.1073726e-01 -4.7555670e-01 0.0000000e+00 
-2.0197618e-01 -6.5827060e-01 0.0000000e+00 
-2.9175490e-01 -6.2509435e-01 0.0000000e+00 
-2.8650364e-01 -8.1565511e-01 0.0000000e+00 
-3.7849784e-01 -7.7420175e-01 0.0000000e+00 
-3.7546104e-01 -9.6913558e-01 0.0000000e+00 
-4.6824396e-01 -9.2079318e-01 0.0000000e+00 
-4.6622661e-01 -1.1176443e+00 0.0000000e+00 
-5.5889791e-01 -1.0637531e+00 0.0000000e+00 
-5.5688715e-01 -1.2607505e+00 0.0000000e+00 
-6.4889419e-01 -1.2025431e+00 0.0000000e+00 
-6.4606196e-01 -1.3983686e+00 0.0000000e+00 
-7.3784691e-01 -1.3380738e+00 0.0000000e+00 
REACTION 3 26  float
0.0000000e+00 0.0000000e+00 0.0000000e+00 
0.0000000e+00 0.0000000e+00 0.0000000e+00 
0.0000000e+00 0.0000000e+00 0.0000000e+00 
0.0000000e+00 0.0000000e+00 0.0000000e+00 
0.0000000e+00 0.0000000e+00 0.0000000e+00 
0.0000000e+00 0.0000000e+00 0.0000000e+00 
0.0000000e+00 0.0000000e+00 0.0000000e+00 
0.0000000e+00 0.0000000e+00 0.0000000e+00 
0.0000000e+00 0.0000000e+00 0.0000000e+00 
0.0000000e+00 0.0000000e+00 0.0000000e+00 
0.0000000e+00 0.0000000e+00 0.0000000e+00 
0.0000000e+00 0.0000000e+00 0.0000000e+00 
0.0000000e+00 0.0000000e+00 0.0000000e+00 
0.0000000e+00 0.0000000e+00 0.0000000e+00 
0.0000000e+00 0.0000000e+00 0.0000000e+00 
0.0000000e+00 0.0000000e+00 0.0000000e+00 
0.0000000e+00 0.0000000e+00 0.0000000e+00 
0.0000000e+00 0.0000000e+00 0.0000000e+00 
0.0000000e+00 0.0000000e+00 0.0000000e+00 
0.0000000e+00 0.0000000e+00 0.0000000e+00 
0.0000000e+00 0.0000000e+00 0.0000000e+00 
0.0000000e+00 0.0000000e+00 0.0000000e+00 
0.0000000e+00 0.0000000e+00 0.0000000e+00 
0.0000000e+00 0.0000000e+00 0.0000000e+00 
0.0000000e+00 0.0000000e+00 0.0000000e+00 
0.0000000e+00 0.0000000e+00 0.0000000e+00 
VON_MISES_STRESS 1 26  float
1.8704607e+10
1.8508667e+10
1.7957226e+10
1.7005358e+10
1.5967882e+10
1.4827536e+10
1.3982775e+10
1.2716404e+10
1.2038282e+10
1.0695345e+10
1.0154752e+10
8.7711785e+09
8.3909811e+09
7.0087977e+09
6.7446390e+09
5.3909340e+09
5.2914929e+09
4.0527913e+09
4.0470543e+09
2.9039675e+09
2.9683492e+09
1.9008914e+09
2.0155675e+09
1.0272963e+09
1.1158490e+09
8.7736176e+07
CELL_DATA 24
FIELD FieldData 0
