# vtk DataFile Version 4.0
vtk output
ASCII
DATASET UNSTRUCTURED_GRID
POINTS 26 float
0.0000000e+00 1.0000000e-01 0.0000000e+00 
0.0000000e+00 0.0000000e+00 0.0000000e+00 
1.4766368e-01 1.0000000e-01 0.0000000e+00 
1.4883940e-01 0.0000000e+00 0.0000000e+00 
3.0036214e-01 1.0000000e-01 0.0000000e+00 
3.0422947e-01 0.0000000e+00 0.0000000e+00 
4.6008557e-01 1.0000000e-01 0.0000000e+00 
4.6697357e-01 0.0000000e+00 0.0000000e+00 
6.2771249e-01 1.0000000e-01 0.0000000e+00 
6.3798475e-01 0.0000000e+00 0.0000000e+00 
8.0424988e-01 1.0000000e-01 0.0000000e+00 
8.1830680e-01 0.0000000e+00 0.0000000e+00 
9.9085975e-01 1.0000000e-01 0.0000000e+00 
1.0091403e+00 0.0000000e+00 0.0000000e+00 
1.1816932e+00 1.0000000e-01 0.0000000e+00 
1.1957501e+00 0.0000000e+00 0.0000000e+00 
1.3620152e+00 1.0000000e-01 0.0000000e+00 
1.3722875e+00 0.0000000e+00 0.0000000e+00 
1.5330265e+00 1.0000000e-01 0.0000000e+00 
1.5399145e+00 0.0000000e+00 0.0000000e+00 
1.6957705e+00 1.0000000e-01 0.0000000e+00 
1.6996379e+00 0.0000000e+00 0.0000000e+00 
1.8511606e+00 1.0000000e-01 0.0000000e+00 
1.8523363e+00 0.0000000e+00 0.0000000e+00 
2.0000000e+00 1.0000000e-01 0.0000000e+00 
2.0000000e+00 0.0000000e+00 0.0000000e+00 

CELLS 24 96
3 25 24 23
3 0 1 2
3 1 3 2
3 2 3 4
3 24 22 23
3 23 22 21
3 3 5 4
3 4 5 6
3 22 20 21
3 21 20 19
3 5 7 6
3 6 7 8
3 20 18 19
3 19 18 17
3 7 9 8
3 8 9 10
3 18 16 17
3 17 16 15
3 9 11 10
3 10 11 12
3 16 14 15
3 15 14 13
3 11 13 12
3 12 13 14

CELL_TYPES 24
5
5
5
5
5
5
5
5
5
5
5
5
5
5
5
5
5
5
5
5
5
5
5
5
POINT_DATA 26
FIELD FieldData 3
DISPLACEMENT 3 26  float
0.0000000e+00 0.0000000e+00 0.0000000e+00 
0.0000000e+00 0.0000000e+00 0.0000000e+00 
7.3396168e-03 -1.5621983e-02 0.0000000e+00 
-1.1515038e-02 -1.3788720e-02 0.0000000e+00 
8.7438896e-03 -6.0204551e-02 0.0000000e+00 
-2.7150784e-02 -5.4843914e-02 0.0000000e+00 
-4.7318381e-04 -1.3255890e-01 0.0000000e+00 
-5.1377937e-02 -1.2251936e-01 0.0000000e+00 
-2.3986217e-02 -2.3075572e-01 0.0000000e+00 
-8.7942988e-02 -2.1571654e-01 0.0000000e+00 
-6.4497747e-02 -3.5277206e-01 0.0000000e+00 
-1.3975766e-01 -3.3311820e-01 0.0000000e+00 
-1.2379552e-01 -4.9673367e-01 0.0000000e+00 
-2.0885582e-01 -4.7341821e-01 0.0000000e+00 
-1.9971988e-01 -6.5529537e-01 0.0000000e+00 
-2.8918818e-01 -6.2247080e-01 0.0000000e+00 
-2.8351167e-01 -8.1221044e-01 0.0000000e+00 
-3.7522584e-01 -7.7114826e-01 0.0000000e+00 
-3.7173262e-01 -9.6527874e-01 0.0000000e+00 
-4.6426335e-01 -9.1735631e-01 0.0000000e+00 
-4.6177205e-01 -1.1134189e+00 0.0000000e+00 
-5.5421454e-01 -1.0599693e+00 0.0000000e+00 
-5.5172175e-01 -1.2561878e+00 0.0000000e+00 
-6.4351815e-01 -1.1984392e+00 0.0000000e+00 
-6.4020270e-01 -1.3934895e+00 0.0000000e+00 
-7.3178190e-01 -1.3336660e+00 0.0000000e+00 
REACTION 3 26  float
0.0000000e+00 0.0000000e+00 0.0000000e+00 
0.0000000e+00 0.0000000e+00 0.0000000e+00 
0.0000000e+00 0.0000000e+00 0.0000000e+00 
0.0000000e+00 0.0000000e+00 0.0000000e+00 
0.0000000e+00 0.0000000e+00 0.0000000e+00 
0.0000000e+00 0.0000000e+00 0.0000000e+00 
0.0000000e+00 0.0000000e+00 0.0000000e+00 
0.0000000e+00 0.0000000e+00 0.0000000e+00 
0.0000000e+00 0.0000000e+00 0.0000000e+00 
0.0000000e+00 0.0000000e+00 0.0000000e+00 
0.0000000e+00 0.0000000e+00 0.0000000e+00 
0.0000000e+00 0.0000000e+00 0.0000000e+00 
0.0000000e+00 0.0000000e+00 0.0000000e+00 
0.0000000e+00 0.0000000e+00 0.0000000e+00 
0.0000000e+00 0.0000000e+00 0.0000000e+00 
0.0000000e+00 0.0000000e+00 0.0000000e+00 
0.0000000e+00 0.0000000e+00 0.0000000e+00 
0.0000000e+00 0.0000000e+00 0.0000000e+00 
0.0000000e+00 0.0000000e+00 0.0000000e+00 
0.0000000e+00 0.0000000e+00 0.0000000e+00 
0.0000000e+00 0.0000000e+00 0.0000000e+00 
0.0000000e+00 0.0000000e+00 0.0000000e+00 
0.0000000e+00 0.0000000e+00 0.0000000e+00 
0.0000000e+00 0.0000000e+00 0.0000000e+00 
0.0000000e+00 0.0000000e+00 0.0000000e+00 
0.0000000e+00 0.0000000e+00 0.0000000e+00 
VON_MISES_STRESS 1 26  float
1.8586649e+10
1.8391425e+10
1.7845932e+10
1.6904348e+10
1.5877944e+10
1.4750496e+10
1.3913058e+10
1.2660131e+10
1.1986169e+10
1.0656201e+10
1.0117193e+10
8.7454464e+09
8.3645875e+09
6.9924777e+09
6.7259597e+09
5.3808804e+09
5.2777068e+09
4.0461010e+09
4.0358213e+09
2.8986998e+09
2.9580495e+09
1.8956366e+09
2.0050167e+09
1.0193958e+09
1.1042511e+09
8.0269336e+07
CELL_DATA 24
FIELD FieldData 0
