# vtk DataFile Version 4.0
vtk output
ASCII
DATASET UNSTRUCTURED_GRID
POINTS 26 float
0.0000000e+00 1.0000000e-01 0.0000000e+00 
0.0000000e+00 0.0000000e+00 0.0000000e+00 
1.4766368e-01 1.0000000e-01 0.0000000e+00 
1.4883940e-01 0.0000000e+00 0.0000000e+00 
3.0036214e-01 1.0000000e-01 0.0000000e+00 
3.0422947e-01 0.0000000e+00 0.0000000e+00 
4.6008557e-01 1.0000000e-01 0.0000000e+00 
4.6697357e-01 0.0000000e+00 0.0000000e+00 
6.2771249e-01 1.0000000e-01 0.0000000e+00 
6.3798475e-01 0.0000000e+00 0.0000000e+00 
8.0424988e-01 1.0000000e-01 0.0000000e+00 
8.1830680e-01 0.0000000e+00 0.0000000e+00 
9.9085975e-01 1.0000000e-01 0.0000000e+00 
1.0091403e+00 0.0000000e+00 0.0000000e+00 
1.1816932e+00 1.0000000e-01 0.0000000e+00 
1.1957501e+00 0.0000000e+00 0.0000000e+00 
1.3620152e+00 1.0000000e-01 0.0000000e+00 
1.3722875e+00 0.0000000e+00 0.0000000e+00 
1.5330265e+00 1.0000000e-01 0.0000000e+00 
1.5399145e+00 0.0000000e+00 0.0000000e+00 
1.6957705e+00 1.0000000e-01 0.0000000e+00 
1.6996379e+00 0.0000000e+00 0.0000000e+00 
1.8511606e+00 1.0000000e-01 0.0000000e+00 
1.8523363e+00 0.0000000e+00 0.0000000e+00 
2.0000000e+00 1.0000000e-01 0.0000000e+00 
2.0000000e+00 0.0000000e+00 0.0000000e+00 

CELLS 24 96
3 25 24 23
3 0 1 2
3 1 3 2
3 2 3 4
3 24 22 23
3 23 22 21
3 3 5 4
3 4 5 6
3 22 20 21
3 21 20 19
3 5 7 6
3 6 7 8
3 20 18 19
3 19 18 17
3 7 9 8
3 8 9 10
3 18 16 17
3 17 16 15
3 9 11 10
3 10 11 12
3 16 14 15
3 15 14 13
3 11 13 12
3 12 13 14

CELL_TYPES 24
5
5
5
5
5
5
5
5
5
5
5
5
5
5
5
5
5
5
5
5
5
5
5
5
POINT_DATA 26
FIELD FieldData 3
DISPLACEMENT 3 26  float
0.0000000e+00 0.0000000e+00 0.0000000e+00 
0.0000000e+00 0.0000000e+00 0.0000000e+00 
6.6972547e-03 -1.3691359e-02 0.0000000e+00 
-9.9772615e-03 -1.2290588e-02 0.0000000e+00 
8.7229060e-03 -5.3042077e-02 0.0000000e+00 
-2.3249492e-02 -4.8961751e-02 0.0000000e+00 
2.2837147e-03 -1.1754189e-01 0.0000000e+00 
-4.3457255e-02 -1.0987746e-01 0.0000000e+00 
-1.5805263e-02 -2.0606785e-01 0.0000000e+00 
-7.3788598e-02 -1.9453974e-01 0.0000000e+00 
-4.8058327e-02 -3.1732672e-01 0.0000000e+00 
-1.1685537e-01 -3.0222228e-01 0.0000000e+00 
-9.6287347e-02 -4.5001721e-01 0.0000000e+00 
-1.7459248e-01 -4.3211201e-01 0.0000000e+00 
-1.5897407e-01 -5.9755331e-01 0.0000000e+00 
-2.4211316e-01 -5.7124573e-01 0.0000000e+00 
-2.2894812e-01 -7.4467432e-01 0.0000000e+00 
-3.1483456e-01 -7.1095550e-01 0.0000000e+00 
-3.0321172e-01 -8.8899660e-01 0.0000000e+00 
-3.9039642e-01 -8.4903032e-01 0.0000000e+00 
-3.7940785e-01 -1.0292138e+00 0.0000000e+00 
-4.6691924e-01 -9.8418146e-01 0.0000000e+00 
-4.5576274e-01 -1.1646700e+00 0.0000000e+00 
-5.4295731e-01 -1.1156949e+00 0.0000000e+00 
-5.3096604e-01 -1.2950846e+00 0.0000000e+00 
-6.1803329e-01 -1.2442664e+00 0.0000000e+00 
REACTION 3 26  float
0.0000000e+00 0.0000000e+00 0.0000000e+00 
0.0000000e+00 0.0000000e+00 0.0000000e+00 
0.0000000e+00 0.0000000e+00 0.0000000e+00 
0.0000000e+00 0.0000000e+00 0.0000000e+00 
0.0000000e+00 0.0000000e+00 0.0000000e+00 
0.0000000e+00 0.0000000e+00 0.0000000e+00 
0.0000000e+00 0.0000000e+00 0.0000000e+00 
0.0000000e+00 0.0000000e+00 0.0000000e+00 
0.0000000e+00 0.0000000e+00 0.0000000e+00 
0.0000000e+00 0.0000000e+00 0.0000000e+00 
0.0000000e+00 0.0000000e+00 0.0000000e+00 
0.0000000e+00 0.0000000e+00 0.0000000e+00 
0.0000000e+00 0.0000000e+00 0.0000000e+00 
0.0000000e+00 0.0000000e+00 0.0000000e+00 
0.0000000e+00 0.0000000e+00 0.0000000e+00 
0.0000000e+00 0.0000000e+00 0.0000000e+00 
0.0000000e+00 0.0000000e+00 0.0000000e+00 
0.0000000e+00 0.0000000e+00 0.0000000e+00 
0.0000000e+00 0.0000000e+00 0.0000000e+00 
0.0000000e+00 0.0000000e+00 0.0000000e+00 
0.0000000e+00 0.0000000e+00 0.0000000e+00 
0.0000000e+00 0.0000000e+00 0.0000000e+00 
0.0000000e+00 0.0000000e+00 0.0000000e+00 
0.0000000e+00 0.0000000e+00 0.0000000e+00 
0.0000000e+00 0.0000000e+00 0.0000000e+00 
0.0000000e+00 0.0000000e+00 0.0000000e+00 
VON_MISES_STRESS 1 26  float
1.6430201e+10
1.6243845e+10
1.5800454e+10
1.5029033e+10
1.4194134e+10
1.3282053e+10
1.2576136e+10
1.1551433e+10
1.0957474e+10
9.8517166e+09
9.3499924e+09
8.1869143e+09
7.8047427e+09
6.6146949e+09
6.3174267e+09
5.1314944e+09
4.9723479e+09
3.8740457e+09
3.7928384e+09
2.7701379e+09
2.7491889e+09
1.7874700e+09
1.8111542e+09
9.0881350e+08
9.4369190e+08
3.9486944e+07
CELL_DATA 24
FIELD FieldData 0
