# vtk DataFile Version 4.0
vtk output
ASCII
DATASET UNSTRUCTURED_GRID
POINTS 26 float
0.0000000e+00 1.0000000e-01 0.0000000e+00 
0.0000000e+00 0.0000000e+00 0.0000000e+00 
1.4766368e-01 1.0000000e-01 0.0000000e+00 
1.4883940e-01 0.0000000e+00 0.0000000e+00 
3.0036214e-01 1.0000000e-01 0.0000000e+00 
3.0422947e-01 0.0000000e+00 0.0000000e+00 
4.6008557e-01 1.0000000e-01 0.0000000e+00 
4.6697357e-01 0.0000000e+00 0.0000000e+00 
6.2771249e-01 1.0000000e-01 0.0000000e+00 
6.3798475e-01 0.0000000e+00 0.0000000e+00 
8.0424988e-01 1.0000000e-01 0.0000000e+00 
8.1830680e-01 0.0000000e+00 0.0000000e+00 
9.9085975e-01 1.0000000e-01 0.0000000e+00 
1.0091403e+00 0.0000000e+00 0.0000000e+00 
1.1816932e+00 1.0000000e-01 0.0000000e+00 
1.1957501e+00 0.0000000e+00 0.0000000e+00 
1.3620152e+00 1.0000000e-01 0.0000000e+00 
1.3722875e+00 0.0000000e+00 0.0000000e+00 
1.5330265e+00 1.0000000e-01 0.0000000e+00 
1.5399145e+00 0.0000000e+00 0.0000000e+00 
1.6957705e+00 1.0000000e-01 0.0000000e+00 
1.6996379e+00 0.0000000e+00 0.0000000e+00 
1.8511606e+00 1.0000000e-01 0.0000000e+00 
1.8523363e+00 0.0000000e+00 0.0000000e+00 
2.0000000e+00 1.0000000e-01 0.0000000e+00 
2.0000000e+00 0.0000000e+00 0.0000000e+00 

CELLS 24 96
3 25 24 23
3 0 1 2
3 1 3 2
3 2 3 4
3 24 22 23
3 23 22 21
3 3 5 4
3 4 5 6
3 22 20 21
3 21 20 19
3 5 7 6
3 6 7 8
3 20 18 19
3 19 18 17
3 7 9 8
3 8 9 10
3 18 16 17
3 17 16 15
3 9 11 10
3 10 11 12
3 16 14 15
3 15 14 13
3 11 13 12
3 12 13 14

CELL_TYPES 24
5
5
5
5
5
5
5
5
5
5
5
5
5
5
5
5
5
5
5
5
5
5
5
5
POINT_DATA 26
FIELD FieldData 3
DISPLACEMENT 3 26  float
0.0000000e+00 0.0000000e+00 0.0000000e+00 
0.0000000e+00 0.0000000e+00 0.0000000e+00 
6.2378147e-03 -1.2429697e-02 0.0000000e+00 
-8.9837462e-03 -1.1286103e-02 0.0000000e+00 
8.5601006e-03 -4.8296016e-02 0.0000000e+00 
-2.0746630e-02 -4.4983860e-02 0.0000000e+00 
3.7495149e-03 -1.0742816e-01 0.0000000e+00 
-3.8395468e-02 -1.0121358e-01 0.0000000e+00 
-1.1007199e-02 -1.8914306e-01 0.0000000e+00 
-6.4719856e-02 -1.7980003e-01 0.0000000e+00 
-3.8020726e-02 -2.9257390e-01 0.0000000e+00 
-1.0207421e-01 -2.8035492e-01 0.0000000e+00 
-7.9034597e-02 -4.1678056e-01 0.0000000e+00 
-1.5225995e-01 -4.0236610e-01 0.0000000e+00 
-1.3289352e-01 -5.5573827e-01 0.0000000e+00 
-2.1112159e-01 -5.3375638e-01 0.0000000e+00 
-1.9348200e-01 -6.9501138e-01 0.0000000e+00 
-2.7471477e-01 -6.6626799e-01 0.0000000e+00 
-2.5813696e-01 -8.3215684e-01 0.0000000e+00 
-3.4094194e-01 -7.9766035e-01 0.0000000e+00 
-3.2471770e-01 -9.6575654e-01 0.0000000e+00 
-4.0809980e-01 -9.2656678e-01 0.0000000e+00 
-3.9158425e-01 -1.0950339e+00 0.0000000e+00 
-4.7485626e-01 -1.0521812e+00 0.0000000e+00 
-4.5750913e-01 -1.2195971e+00 0.0000000e+00 
-5.4071176e-01 -1.1750605e+00 0.0000000e+00 
REACTION 3 26  float
0.0000000e+00 0.0000000e+00 0.0000000e+00 
0.0000000e+00 0.0000000e+00 0.0000000e+00 
0.0000000e+00 0.0000000e+00 0.0000000e+00 
0.0000000e+00 0.0000000e+00 0.0000000e+00 
0.0000000e+00 0.0000000e+00 0.0000000e+00 
0.0000000e+00 0.0000000e+00 0.0000000e+00 
0.0000000e+00 0.0000000e+00 0.0000000e+00 
0.0000000e+00 0.0000000e+00 0.0000000e+00 
0.0000000e+00 0.0000000e+00 0.0000000e+00 
0.0000000e+00 0.0000000e+00 0.0000000e+00 
0.0000000e+00 0.0000000e+00 0.0000000e+00 
0.0000000e+00 0.0000000e+00 0.0000000e+00 
0.0000000e+00 0.0000000e+00 0.0000000e+00 
0.0000000e+00 0.0000000e+00 0.0000000e+00 
0.0000000e+00 0.0000000e+00 0.0000000e+00 
0.0000000e+00 0.0000000e+00 0.0000000e+00 
0.0000000e+00 0.0000000e+00 0.0000000e+00 
0.0000000e+00 0.0000000e+00 0.0000000e+00 
0.0000000e+00 0.0000000e+00 0.0000000e+00 
0.0000000e+00 0.0000000e+00 0.0000000e+00 
0.0000000e+00 0.0000000e+00 0.0000000e+00 
0.0000000e+00 0.0000000e+00 0.0000000e+00 
0.0000000e+00 0.0000000e+00 0.0000000e+00 
0.0000000e+00 0.0000000e+00 0.0000000e+00 
0.0000000e+00 0.0000000e+00 0.0000000e+00 
0.0000000e+00 0.0000000e+00 0.0000000e+00 
VON_MISES_STRESS 1 26  float
1.4999893e+10
1.4816117e+10
1.4433727e+10
1.3758314e+10
1.3038898e+10
1.2249688e+10
1.1627611e+10
1.0736516e+10
1.0198528e+10
9.2279982e+09
8.7585004e+09
7.7255414e+09
7.3528571e+09
6.2808965e+09
5.9755965e+09
4.8963666e+09
4.7126339e+09
3.7062008e+09
3.5905569e+09
2.6489285e+09
2.5870825e+09
1.6997251e+09
1.6786363e+09
8.6473773e+08
8.8463488e+08
1.0116883e+08
CELL_DATA 24
FIELD FieldData 0
