# vtk DataFile Version 4.0
vtk output
ASCII
DATASET UNSTRUCTURED_GRID
POINTS 26 float
0.0000000e+00 1.0000000e-01 0.0000000e+00 
0.0000000e+00 0.0000000e+00 0.0000000e+00 
1.4766368e-01 1.0000000e-01 0.0000000e+00 
1.4883940e-01 0.0000000e+00 0.0000000e+00 
3.0036214e-01 1.0000000e-01 0.0000000e+00 
3.0422947e-01 0.0000000e+00 0.0000000e+00 
4.6008557e-01 1.0000000e-01 0.0000000e+00 
4.6697357e-01 0.0000000e+00 0.0000000e+00 
6.2771249e-01 1.0000000e-01 0.0000000e+00 
6.3798475e-01 0.0000000e+00 0.0000000e+00 
8.0424988e-01 1.0000000e-01 0.0000000e+00 
8.1830680e-01 0.0000000e+00 0.0000000e+00 
9.9085975e-01 1.0000000e-01 0.0000000e+00 
1.0091403e+00 0.0000000e+00 0.0000000e+00 
1.1816932e+00 1.0000000e-01 0.0000000e+00 
1.1957501e+00 0.0000000e+00 0.0000000e+00 
1.3620152e+00 1.0000000e-01 0.0000000e+00 
1.3722875e+00 0.0000000e+00 0.0000000e+00 
1.5330265e+00 1.0000000e-01 0.0000000e+00 
1.5399145e+00 0.0000000e+00 0.0000000e+00 
1.6957705e+00 1.0000000e-01 0.0000000e+00 
1.6996379e+00 0.0000000e+00 0.0000000e+00 
1.8511606e+00 1.0000000e-01 0.0000000e+00 
1.8523363e+00 0.0000000e+00 0.0000000e+00 
2.0000000e+00 1.0000000e-01 0.0000000e+00 
2.0000000e+00 0.0000000e+00 0.0000000e+00 

CELLS 24 96
3 25 24 23
3 0 1 2
3 1 3 2
3 2 3 4
3 24 22 23
3 23 22 21
3 3 5 4
3 4 5 6
3 22 20 21
3 21 20 19
3 5 7 6
3 6 7 8
3 20 18 19
3 19 18 17
3 7 9 8
3 8 9 10
3 18 16 17
3 17 16 15
3 9 11 10
3 10 11 12
3 16 14 15
3 15 14 13
3 11 13 12
3 12 13 14

CELL_TYPES 24
5
5
5
5
5
5
5
5
5
5
5
5
5
5
5
5
5
5
5
5
5
5
5
5
POINT_DATA 26
FIELD FieldData 3
DISPLACEMENT 3 26  float
0.0000000e+00 0.0000000e+00 0.0000000e+00 
0.0000000e+00 0.0000000e+00 0.0000000e+00 
4.8389649e-03 -9.0264669e-03 0.0000000e+00 
-6.3599232e-03 -8.4633008e-03 0.0000000e+00 
7.4972403e-03 -3.5276987e-02 0.0000000e+00 
-1.4251660e-02 -3.3707861e-02 0.0000000e+00 
6.1871791e-03 -7.9113275e-02 0.0000000e+00 
-2.5446968e-02 -7.6245628e-02 0.0000000e+00 
-8.1630383e-04 -1.4065540e-01 0.0000000e+00 
-4.1621700e-02 -1.3646010e-01 0.0000000e+00 
-1.5055953e-02 -2.1988960e-01 0.0000000e+00 
-6.4280652e-02 -2.1460596e-01 0.0000000e+00 
-3.7813172e-02 -3.1667230e-01 0.0000000e+00 
-9.4651647e-02 -3.1079555e-01 0.0000000e+00 
-6.8642452e-02 -4.2665350e-01 0.0000000e+00 
-1.3034414e-01 -4.1574740e-01 0.0000000e+00 
-1.0413206e-01 -5.3835487e-01 0.0000000e+00 
-1.6908921e-01 -5.2276957e-01 0.0000000e+00 
-1.4261781e-01 -6.4947158e-01 0.0000000e+00 
-2.0958036e-01 -6.2977725e-01 0.0000000e+00 
-1.8268618e-01 -7.5849748e-01 0.0000000e+00 
-2.5070620e-01 -7.3536867e-01 0.0000000e+00 
-2.2320639e-01 -8.6447519e-01 0.0000000e+00 
-2.9156482e-01 -8.3861470e-01 0.0000000e+00 
-2.6330650e-01 -9.6681005e-01 0.0000000e+00 
-3.3172682e-01 -9.3972397e-01 0.0000000e+00 
REACTION 3 26  float
0.0000000e+00 0.0000000e+00 0.0000000e+00 
0.0000000e+00 0.0000000e+00 0.0000000e+00 
0.0000000e+00 0.0000000e+00 0.0000000e+00 
0.0000000e+00 0.0000000e+00 0.0000000e+00 
0.0000000e+00 0.0000000e+00 0.0000000e+00 
0.0000000e+00 0.0000000e+00 0.0000000e+00 
0.0000000e+00 0.0000000e+00 0.0000000e+00 
0.0000000e+00 0.0000000e+00 0.0000000e+00 
0.0000000e+00 0.0000000e+00 0.0000000e+00 
0.0000000e+00 0.0000000e+00 0.0000000e+00 
0.0000000e+00 0.0000000e+00 0.0000000e+00 
0.0000000e+00 0.0000000e+00 0.0000000e+00 
0.0000000e+00 0.0000000e+00 0.0000000e+00 
0.0000000e+00 0.0000000e+00 0.0000000e+00 
0.0000000e+00 0.0000000e+00 0.0000000e+00 
0.0000000e+00 0.0000000e+00 0.0000000e+00 
0.0000000e+00 0.0000000e+00 0.0000000e+00 
0.0000000e+00 0.0000000e+00 0.0000000e+00 
0.0000000e+00 0.0000000e+00 0.0000000e+00 
0.0000000e+00 0.0000000e+00 0.0000000e+00 
0.0000000e+00 0.0000000e+00 0.0000000e+00 
0.0000000e+00 0.0000000e+00 0.0000000e+00 
0.0000000e+00 0.0000000e+00 0.0000000e+00 
0.0000000e+00 0.0000000e+00 0.0000000e+00 
0.0000000e+00 0.0000000e+00 0.0000000e+00 
0.0000000e+00 0.0000000e+00 0.0000000e+00 
VON_MISES_STRESS 1 26  float
1.1055865e+10
1.0876379e+10
1.0636490e+10
1.0172940e+10
9.7248512e+09
9.2067482e+09
8.7958487e+09
8.2091402e+09
7.8282732e+09
7.1786481e+09
6.8191611e+09
6.1102208e+09
5.7978947e+09
5.0376673e+09
4.7545897e+09
3.9709885e+09
3.7668475e+09
3.0247363e+09
2.8634371e+09
2.1625702e+09
2.0375437e+09
1.3772241e+09
1.2823771e+09
7.0670086e+08
6.9488307e+08
1.9852360e+08
CELL_DATA 24
FIELD FieldData 0
