# vtk DataFile Version 4.0
vtk output
ASCII
DATASET UNSTRUCTURED_GRID
POINTS 26 float
0.0000000e+00 1.0000000e-01 0.0000000e+00 
0.0000000e+00 0.0000000e+00 0.0000000e+00 
1.4766368e-01 1.0000000e-01 0.0000000e+00 
1.4883940e-01 0.0000000e+00 0.0000000e+00 
3.0036214e-01 1.0000000e-01 0.0000000e+00 
3.0422947e-01 0.0000000e+00 0.0000000e+00 
4.6008557e-01 1.0000000e-01 0.0000000e+00 
4.6697357e-01 0.0000000e+00 0.0000000e+00 
6.2771249e-01 1.0000000e-01 0.0000000e+00 
6.3798475e-01 0.0000000e+00 0.0000000e+00 
8.0424988e-01 1.0000000e-01 0.0000000e+00 
8.1830680e-01 0.0000000e+00 0.0000000e+00 
9.9085975e-01 1.0000000e-01 0.0000000e+00 
1.0091403e+00 0.0000000e+00 0.0000000e+00 
1.1816932e+00 1.0000000e-01 0.0000000e+00 
1.1957501e+00 0.0000000e+00 0.0000000e+00 
1.3620152e+00 1.0000000e-01 0.0000000e+00 
1.3722875e+00 0.0000000e+00 0.0000000e+00 
1.5330265e+00 1.0000000e-01 0.0000000e+00 
1.5399145e+00 0.0000000e+00 0.0000000e+00 
1.6957705e+00 1.0000000e-01 0.0000000e+00 
1.6996379e+00 0.0000000e+00 0.0000000e+00 
1.8511606e+00 1.0000000e-01 0.0000000e+00 
1.8523363e+00 0.0000000e+00 0.0000000e+00 
2.0000000e+00 1.0000000e-01 0.0000000e+00 
2.0000000e+00 0.0000000e+00 0.0000000e+00 

CELLS 24 96
3 25 24 23
3 0 1 2
3 1 3 2
3 2 3 4
3 24 22 23
3 23 22 21
3 3 5 4
3 4 5 6
3 22 20 21
3 21 20 19
3 5 7 6
3 6 7 8
3 20 18 19
3 19 18 17
3 7 9 8
3 8 9 10
3 18 16 17
3 17 16 15
3 9 11 10
3 10 11 12
3 16 14 15
3 15 14 13
3 11 13 12
3 12 13 14

CELL_TYPES 24
5
5
5
5
5
5
5
5
5
5
5
5
5
5
5
5
5
5
5
5
5
5
5
5
POINT_DATA 26
FIELD FieldData 3
DISPLACEMENT 3 26  float
0.0000000e+00 0.0000000e+00 0.0000000e+00 
0.0000000e+00 0.0000000e+00 0.0000000e+00 
1.1558218e-03 -1.9059561e-03 0.0000000e+00 
-1.2508642e-03 -1.9186942e-03 0.0000000e+00 
2.1546176e-03 -7.4618962e-03 0.0000000e+00 
-2.5459337e-03 -7.5496603e-03 0.0000000e+00 
2.9328603e-03 -1.6846664e-02 0.0000000e+00 
-3.9667166e-03 -1.7103229e-02 0.0000000e+00 
3.3940384e-03 -3.0251037e-02 0.0000000e+00 
-5.5898051e-03 -3.0791840e-02 0.0000000e+00 
3.4414192e-03 -4.7858577e-02 0.0000000e+00 
-7.4841324e-03 -4.8819147e-02 0.0000000e+00 
2.9832968e-03 -6.9826201e-02 0.0000000e+00 
-9.7024990e-03 -7.1354687e-02 0.0000000e+00 
2.0283801e-03 -9.5291480e-02 0.0000000e+00 
-1.2058401e-02 -9.6297503e-02 0.0000000e+00 
6.6971156e-04 -1.2162209e-01 0.0000000e+00 
-1.4469841e-02 -1.2205362e-01 0.0000000e+00 
-9.9063979e-04 -1.4818840e-01 0.0000000e+00 
-1.6877741e-02 -1.4804327e-01 0.0000000e+00 
-2.8579601e-03 -1.7452447e-01 0.0000000e+00 
-1.9230109e-02 -1.7383660e-01 0.0000000e+00 
-4.8517026e-03 -2.0029360e-01 0.0000000e+00 
-2.1484004e-02 -1.9911923e-01 0.0000000e+00 
-6.9079050e-03 -2.2525778e-01 0.0000000e+00 
-2.3607658e-02 -2.2384848e-01 0.0000000e+00 
REACTION 3 26  float
0.0000000e+00 0.0000000e+00 0.0000000e+00 
0.0000000e+00 0.0000000e+00 0.0000000e+00 
0.0000000e+00 0.0000000e+00 0.0000000e+00 
0.0000000e+00 0.0000000e+00 0.0000000e+00 
0.0000000e+00 0.0000000e+00 0.0000000e+00 
0.0000000e+00 0.0000000e+00 0.0000000e+00 
0.0000000e+00 0.0000000e+00 0.0000000e+00 
0.0000000e+00 0.0000000e+00 0.0000000e+00 
0.0000000e+00 0.0000000e+00 0.0000000e+00 
0.0000000e+00 0.0000000e+00 0.0000000e+00 
0.0000000e+00 0.0000000e+00 0.0000000e+00 
0.0000000e+00 0.0000000e+00 0.0000000e+00 
0.0000000e+00 0.0000000e+00 0.0000000e+00 
0.0000000e+00 0.0000000e+00 0.0000000e+00 
0.0000000e+00 0.0000000e+00 0.0000000e+00 
0.0000000e+00 0.0000000e+00 0.0000000e+00 
0.0000000e+00 0.0000000e+00 0.0000000e+00 
0.0000000e+00 0.0000000e+00 0.0000000e+00 
0.0000000e+00 0.0000000e+00 0.0000000e+00 
0.0000000e+00 0.0000000e+00 0.0000000e+00 
0.0000000e+00 0.0000000e+00 0.0000000e+00 
0.0000000e+00 0.0000000e+00 0.0000000e+00 
0.0000000e+00 0.0000000e+00 0.0000000e+00 
0.0000000e+00 0.0000000e+00 0.0000000e+00 
0.0000000e+00 0.0000000e+00 0.0000000e+00 
0.0000000e+00 0.0000000e+00 0.0000000e+00 
VON_MISES_STRESS 1 26  float
2.4020457e+09
2.3258819e+09
2.2895706e+09
2.1815245e+09
2.1156762e+09
2.0082047e+09
1.9391724e+09
1.8229046e+09
1.7496072e+09
1.6231558e+09
1.5441784e+09
1.4057165e+09
1.3277389e+09
1.1755450e+09
1.0962921e+09
9.3694330e+08
8.6986182e+08
7.1793645e+08
6.5670752e+08
5.1355574e+08
4.5847597e+08
3.2662326e+08
2.7924534e+08
1.7383978e+08
1.6028787e+08
8.8811240e+07
CELL_DATA 24
FIELD FieldData 0
