# vtk DataFile Version 4.0
vtk output
ASCII
DATASET UNSTRUCTURED_GRID
POINTS 26 float
0.0000000e+00 1.0000000e-01 0.0000000e+00 
0.0000000e+00 0.0000000e+00 0.0000000e+00 
1.4766368e-01 1.0000000e-01 0.0000000e+00 
1.4883940e-01 0.0000000e+00 0.0000000e+00 
3.0036214e-01 1.0000000e-01 0.0000000e+00 
3.0422947e-01 0.0000000e+00 0.0000000e+00 
4.6008557e-01 1.0000000e-01 0.0000000e+00 
4.6697357e-01 0.0000000e+00 0.0000000e+00 
6.2771249e-01 1.0000000e-01 0.0000000e+00 
6.3798475e-01 0.0000000e+00 0.0000000e+00 
8.0424988e-01 1.0000000e-01 0.0000000e+00 
8.1830680e-01 0.0000000e+00 0.0000000e+00 
9.9085975e-01 1.0000000e-01 0.0000000e+00 
1.0091403e+00 0.0000000e+00 0.0000000e+00 
1.1816932e+00 1.0000000e-01 0.0000000e+00 
1.1957501e+00 0.0000000e+00 0.0000000e+00 
1.3620152e+00 1.0000000e-01 0.0000000e+00 
1.3722875e+00 0.0000000e+00 0.0000000e+00 
1.5330265e+00 1.0000000e-01 0.0000000e+00 
1.5399145e+00 0.0000000e+00 0.0000000e+00 
1.6957705e+00 1.0000000e-01 0.0000000e+00 
1.6996379e+00 0.0000000e+00 0.0000000e+00 
1.8511606e+00 1.0000000e-01 0.0000000e+00 
1.8523363e+00 0.0000000e+00 0.0000000e+00 
2.0000000e+00 1.0000000e-01 0.0000000e+00 
2.0000000e+00 0.0000000e+00 0.0000000e+00 

CELLS 24 96
3 25 24 23
3 0 1 2
3 1 3 2
3 2 3 4
3 24 22 23
3 23 22 21
3 3 5 4
3 4 5 6
3 22 20 21
3 21 20 19
3 5 7 6
3 6 7 8
3 20 18 19
3 19 18 17
3 7 9 8
3 8 9 10
3 18 16 17
3 17 16 15
3 9 11 10
3 10 11 12
3 16 14 15
3 15 14 13
3 11 13 12
3 12 13 14

CELL_TYPES 24
5
5
5
5
5
5
5
5
5
5
5
5
5
5
5
5
5
5
5
5
5
5
5
5
POINT_DATA 26
FIELD FieldData 3
DISPLACEMENT 3 26  float
0.0000000e+00 0.0000000e+00 0.0000000e+00 
0.0000000e+00 0.0000000e+00 0.0000000e+00 
5.6981714e-03 -1.1048144e-02 0.0000000e+00 
-7.9078497e-03 -1.0161035e-02 0.0000000e+00 
8.2405889e-03 -4.3045755e-02 0.0000000e+00 
-1.8059418e-02 -4.0503222e-02 0.0000000e+00 
5.0186771e-03 -9.6102834e-02 0.0000000e+00 
-3.2995895e-02 -9.1357619e-02 0.0000000e+00 
-6.3450602e-03 -1.6993120e-01 0.0000000e+00 
-5.5054210e-02 -1.6283219e-01 0.0000000e+00 
-2.7879311e-02 -2.6406819e-01 0.0000000e+00 
-8.6263523e-02 -2.5485155e-01 0.0000000e+00 
-6.1182670e-02 -3.7793660e-01 0.0000000e+00 
-1.2822381e-01 -3.6719662e-01 0.0000000e+00 
-1.0543696e-01 -5.0617093e-01 0.0000000e+00 
-1.7753877e-01 -4.8885792e-01 0.0000000e+00 
-1.5566476e-01 -6.3540882e-01 0.0000000e+00 
-2.3096201e-01 -6.1213219e-01 0.0000000e+00 
-2.0959911e-01 -7.6320761e-01 0.0000000e+00 
-2.8670841e-01 -7.3479778e-01 0.0000000e+00 
-2.6537484e-01 -8.8807118e-01 0.0000000e+00 
-3.4329873e-01 -8.5543877e-01 0.0000000e+00 
-3.2153630e-01 -1.0091194e+00 0.0000000e+00 
-3.9955705e-01 -9.7317314e-01 0.0000000e+00 
-3.7697977e-01 -1.1258566e+00 0.0000000e+00 
-4.5499045e-01 -1.0884075e+00 0.0000000e+00 
REACTION 3 26  float
0.0000000e+00 0.0000000e+00 0.0000000e+00 
0.0000000e+00 0.0000000e+00 0.0000000e+00 
0.0000000e+00 0.0000000e+00 0.0000000e+00 
0.0000000e+00 0.0000000e+00 0.0000000e+00 
0.0000000e+00 0.0000000e+00 0.0000000e+00 
0.0000000e+00 0.0000000e+00 0.0000000e+00 
0.0000000e+00 0.0000000e+00 0.0000000e+00 
0.0000000e+00 0.0000000e+00 0.0000000e+00 
0.0000000e+00 0.0000000e+00 0.0000000e+00 
0.0000000e+00 0.0000000e+00 0.0000000e+00 
0.0000000e+00 0.0000000e+00 0.0000000e+00 
0.0000000e+00 0.0000000e+00 0.0000000e+00 
0.0000000e+00 0.0000000e+00 0.0000000e+00 
0.0000000e+00 0.0000000e+00 0.0000000e+00 
0.0000000e+00 0.0000000e+00 0.0000000e+00 
0.0000000e+00 0.0000000e+00 0.0000000e+00 
0.0000000e+00 0.0000000e+00 0.0000000e+00 
0.0000000e+00 0.0000000e+00 0.0000000e+00 
0.0000000e+00 0.0000000e+00 0.0000000e+00 
0.0000000e+00 0.0000000e+00 0.0000000e+00 
0.0000000e+00 0.0000000e+00 0.0000000e+00 
0.0000000e+00 0.0000000e+00 0.0000000e+00 
0.0000000e+00 0.0000000e+00 0.0000000e+00 
0.0000000e+00 0.0000000e+00 0.0000000e+00 
0.0000000e+00 0.0000000e+00 0.0000000e+00 
0.0000000e+00 0.0000000e+00 0.0000000e+00 
VON_MISES_STRESS 1 26  float
1.3414031e+10
1.3231666e+10
1.2910953e+10
1.2328817e+10
1.1726704e+10
1.1057279e+10
1.0523974e+10
9.7657334e+09
9.2910131e+09
8.4582477e+09
8.0299233e+09
7.1332910e+09
6.7794724e+09
5.8354488e+09
5.5317944e+09
4.5714284e+09
4.3715241e+09
3.4697057e+09
3.3272978e+09
2.4797804e+09
2.3839941e+09
1.5846578e+09
1.5253074e+09
8.0818362e+08
8.1325037e+08
1.5298061e+08
CELL_DATA 24
FIELD FieldData 0
