# vtk DataFile Version 4.0
vtk output
ASCII
DATASET UNSTRUCTURED_GRID
POINTS 26 float
0.0000000e+00 1.0000000e-01 0.0000000e+00 
0.0000000e+00 0.0000000e+00 0.0000000e+00 
1.4766368e-01 1.0000000e-01 0.0000000e+00 
1.4883940e-01 0.0000000e+00 0.0000000e+00 
3.0036214e-01 1.0000000e-01 0.0000000e+00 
3.0422947e-01 0.0000000e+00 0.0000000e+00 
4.6008557e-01 1.0000000e-01 0.0000000e+00 
4.6697357e-01 0.0000000e+00 0.0000000e+00 
6.2771249e-01 1.0000000e-01 0.0000000e+00 
6.3798475e-01 0.0000000e+00 0.0000000e+00 
8.0424988e-01 1.0000000e-01 0.0000000e+00 
8.1830680e-01 0.0000000e+00 0.0000000e+00 
9.9085975e-01 1.0000000e-01 0.0000000e+00 
1.0091403e+00 0.0000000e+00 0.0000000e+00 
1.1816932e+00 1.0000000e-01 0.0000000e+00 
1.1957501e+00 0.0000000e+00 0.0000000e+00 
1.3620152e+00 1.0000000e-01 0.0000000e+00 
1.3722875e+00 0.0000000e+00 0.0000000e+00 
1.5330265e+00 1.0000000e-01 0.0000000e+00 
1.5399145e+00 0.0000000e+00 0.0000000e+00 
1.6957705e+00 1.0000000e-01 0.0000000e+00 
1.6996379e+00 0.0000000e+00 0.0000000e+00 
1.8511606e+00 1.0000000e-01 0.0000000e+00 
1.8523363e+00 0.0000000e+00 0.0000000e+00 
2.0000000e+00 1.0000000e-01 0.0000000e+00 
2.0000000e+00 0.0000000e+00 0.0000000e+00 

CELLS 24 96
3 25 24 23
3 0 1 2
3 1 3 2
3 2 3 4
3 24 22 23
3 23 22 21
3 3 5 4
3 4 5 6
3 22 20 21
3 21 20 19
3 5 7 6
3 6 7 8
3 20 18 19
3 19 18 17
3 7 9 8
3 8 9 10
3 18 16 17
3 17 16 15
3 9 11 10
3 10 11 12
3 16 14 15
3 15 14 13
3 11 13 12
3 12 13 14

CELL_TYPES 24
5
5
5
5
5
5
5
5
5
5
5
5
5
5
5
5
5
5
5
5
5
5
5
5
POINT_DATA 26
FIELD FieldData 3
DISPLACEMENT 3 26  float
0.0000000e+00 0.0000000e+00 0.0000000e+00 
0.0000000e+00 0.0000000e+00 0.0000000e+00 
1.4879352e-04 -2.3905531e-04 0.0000000e+00 
-1.5372322e-04 -2.4475678e-04 0.0000000e+00 
2.8668487e-04 -9.3445327e-04 0.0000000e+00 
-3.0349742e-04 -9.5841737e-04 0.0000000e+00 
4.1562534e-04 -2.1085958e-03 0.0000000e+00 
-4.4979731e-04 -2.1676226e-03 0.0000000e+00 
5.3288351e-04 -3.7866116e-03 0.0000000e+00 
-5.9239351e-04 -3.8993014e-03 0.0000000e+00 
6.3533540e-04 -5.9929714e-03 0.0000000e+00 
-7.3042966e-04 -6.1792633e-03 0.0000000e+00 
7.1953941e-04 -8.7489365e-03 0.0000000e+00 
-8.6206285e-04 -9.0288278e-03 0.0000000e+00 
7.8576343e-04 -1.1946998e-02 0.0000000e+00 
-9.7408216e-04 -1.2181882e-02 0.0000000e+00 
8.2579238e-04 -1.5257407e-02 0.0000000e+00 
-1.0697381e-03 -1.5437240e-02 0.0000000e+00 
8.4350602e-04 -1.8600533e-02 0.0000000e+00 
-1.1499400e-03 -1.8721033e-02 0.0000000e+00 
8.4273581e-04 -2.1916991e-02 0.0000000e+00 
-1.2156465e-03 -2.1978363e-02 0.0000000e+00 
8.2682783e-04 -2.5163550e-02 0.0000000e+00 
-1.2678027e-03 -2.5169015e-02 0.0000000e+00 
7.9840294e-04 -2.8309481e-02 0.0000000e+00 
-1.3058995e-03 -2.8286655e-02 0.0000000e+00 
REACTION 3 26  float
0.0000000e+00 0.0000000e+00 0.0000000e+00 
0.0000000e+00 0.0000000e+00 0.0000000e+00 
0.0000000e+00 0.0000000e+00 0.0000000e+00 
0.0000000e+00 0.0000000e+00 0.0000000e+00 
0.0000000e+00 0.0000000e+00 0.0000000e+00 
0.0000000e+00 0.0000000e+00 0.0000000e+00 
0.0000000e+00 0.0000000e+00 0.0000000e+00 
0.0000000e+00 0.0000000e+00 0.0000000e+00 
0.0000000e+00 0.0000000e+00 0.0000000e+00 
0.0000000e+00 0.0000000e+00 0.0000000e+00 
0.0000000e+00 0.0000000e+00 0.0000000e+00 
0.0000000e+00 0.0000000e+00 0.0000000e+00 
0.0000000e+00 0.0000000e+00 0.0000000e+00 
0.0000000e+00 0.0000000e+00 0.0000000e+00 
0.0000000e+00 0.0000000e+00 0.0000000e+00 
0.0000000e+00 0.0000000e+00 0.0000000e+00 
0.0000000e+00 0.0000000e+00 0.0000000e+00 
0.0000000e+00 0.0000000e+00 0.0000000e+00 
0.0000000e+00 0.0000000e+00 0.0000000e+00 
0.0000000e+00 0.0000000e+00 0.0000000e+00 
0.0000000e+00 0.0000000e+00 0.0000000e+00 
0.0000000e+00 0.0000000e+00 0.0000000e+00 
0.0000000e+00 0.0000000e+00 0.0000000e+00 
0.0000000e+00 0.0000000e+00 0.0000000e+00 
0.0000000e+00 0.0000000e+00 0.0000000e+00 
0.0000000e+00 0.0000000e+00 0.0000000e+00 
VON_MISES_STRESS 1 26  float
3.0308285e+08
2.9199091e+08
2.8778099e+08
2.7343354e+08
2.6584949e+08
2.5191819e+08
2.4366272e+08
2.2886024e+08
2.1981582e+08
2.0393968e+08
1.9394645e+08
1.7673222e+08
1.6665667e+08
1.4782434e+08
1.3744050e+08
1.1781587e+08
1.0885628e+08
9.0238144e+07
8.1944616e+07
6.4504948e+07
5.6956364e+07
4.1052680e+07
3.4559564e+07
2.2107486e+07
2.0148744e+07
1.2211503e+07
CELL_DATA 24
FIELD FieldData 0
