# vtk DataFile Version 4.0
vtk output
ASCII
DATASET UNSTRUCTURED_GRID
POINTS 26 float
0.0000000e+00 1.0000000e-01 0.0000000e+00 
0.0000000e+00 0.0000000e+00 0.0000000e+00 
1.4766368e-01 1.0000000e-01 0.0000000e+00 
1.4883940e-01 0.0000000e+00 0.0000000e+00 
3.0036214e-01 1.0000000e-01 0.0000000e+00 
3.0422947e-01 0.0000000e+00 0.0000000e+00 
4.6008557e-01 1.0000000e-01 0.0000000e+00 
4.6697357e-01 0.0000000e+00 0.0000000e+00 
6.2771249e-01 1.0000000e-01 0.0000000e+00 
6.3798475e-01 0.0000000e+00 0.0000000e+00 
8.0424988e-01 1.0000000e-01 0.0000000e+00 
8.1830680e-01 0.0000000e+00 0.0000000e+00 
9.9085975e-01 1.0000000e-01 0.0000000e+00 
1.0091403e+00 0.0000000e+00 0.0000000e+00 
1.1816932e+00 1.0000000e-01 0.0000000e+00 
1.1957501e+00 0.0000000e+00 0.0000000e+00 
1.3620152e+00 1.0000000e-01 0.0000000e+00 
1.3722875e+00 0.0000000e+00 0.0000000e+00 
1.5330265e+00 1.0000000e-01 0.0000000e+00 
1.5399145e+00 0.0000000e+00 0.0000000e+00 
1.6957705e+00 1.0000000e-01 0.0000000e+00 
1.6996379e+00 0.0000000e+00 0.0000000e+00 
1.8511606e+00 1.0000000e-01 0.0000000e+00 
1.8523363e+00 0.0000000e+00 0.0000000e+00 
2.0000000e+00 1.0000000e-01 0.0000000e+00 
2.0000000e+00 0.0000000e+00 0.0000000e+00 

CELLS 24 96
3 25 24 23
3 0 1 2
3 1 3 2
3 2 3 4
3 24 22 23
3 23 22 21
3 3 5 4
3 4 5 6
3 22 20 21
3 21 20 19
3 5 7 6
3 6 7 8
3 20 18 19
3 19 18 17
3 7 9 8
3 8 9 10
3 18 16 17
3 17 16 15
3 9 11 10
3 10 11 12
3 16 14 15
3 15 14 13
3 11 13 12
3 12 13 14

CELL_TYPES 24
5
5
5
5
5
5
5
5
5
5
5
5
5
5
5
5
5
5
5
5
5
5
5
5
POINT_DATA 26
FIELD FieldData 3
DISPLACEMENT 3 26  float
0.0000000e+00 0.0000000e+00 0.0000000e+00 
0.0000000e+00 0.0000000e+00 0.0000000e+00 
3.9277337e-03 -7.0683928e-03 0.0000000e+00 
-4.8961635e-03 -6.7556514e-03 0.0000000e+00 
6.4553446e-03 -2.7676493e-02 0.0000000e+00 
-1.0737170e-02 -2.6855070e-02 0.0000000e+00 
6.4762896e-03 -6.2272266e-02 0.0000000e+00 
-1.8645747e-02 -6.0852837e-02 0.0000000e+00 
2.8611983e-03 -1.1118430e-01 0.0000000e+00 
-2.9704103e-02 -1.0924385e-01 0.0000000e+00 
-5.4376465e-03 -1.7465620e-01 0.0000000e+00 
-4.4906631e-02 -1.7244500e-01 0.0000000e+00 
-1.9326894e-02 -2.5281987e-01 0.0000000e+00 
-6.5082088e-02 -2.5075340e-01 0.0000000e+00 
-3.8592596e-02 -3.4232354e-01 0.0000000e+00 
-8.8667974e-02 -3.3671972e-01 0.0000000e+00 
-6.1140444e-02 -4.3383670e-01 0.0000000e+00 
-1.1423700e-01 -4.2484492e-01 0.0000000e+00 
-8.5867330e-02 -5.2534741e-01 0.0000000e+00 
-1.4093214e-01 -5.1330864e-01 0.0000000e+00 
-1.1181006e-01 -6.1547452e-01 0.0000000e+00 
-1.6800924e-01 -6.0083550e-01 0.0000000e+00 
-1.3818182e-01 -7.0329171e-01 0.0000000e+00 
-1.9485497e-01 -6.8654287e-01 0.0000000e+00 
-1.6436778e-01 -7.8818870e-01 0.0000000e+00 
-2.2114715e-01 -7.7049160e-01 0.0000000e+00 
REACTION 3 26  float
0.0000000e+00 0.0000000e+00 0.0000000e+00 
0.0000000e+00 0.0000000e+00 0.0000000e+00 
0.0000000e+00 0.0000000e+00 0.0000000e+00 
0.0000000e+00 0.0000000e+00 0.0000000e+00 
0.0000000e+00 0.0000000e+00 0.0000000e+00 
0.0000000e+00 0.0000000e+00 0.0000000e+00 
0.0000000e+00 0.0000000e+00 0.0000000e+00 
0.0000000e+00 0.0000000e+00 0.0000000e+00 
0.0000000e+00 0.0000000e+00 0.0000000e+00 
0.0000000e+00 0.0000000e+00 0.0000000e+00 
0.0000000e+00 0.0000000e+00 0.0000000e+00 
0.0000000e+00 0.0000000e+00 0.0000000e+00 
0.0000000e+00 0.0000000e+00 0.0000000e+00 
0.0000000e+00 0.0000000e+00 0.0000000e+00 
0.0000000e+00 0.0000000e+00 0.0000000e+00 
0.0000000e+00 0.0000000e+00 0.0000000e+00 
0.0000000e+00 0.0000000e+00 0.0000000e+00 
0.0000000e+00 0.0000000e+00 0.0000000e+00 
0.0000000e+00 0.0000000e+00 0.0000000e+00 
0.0000000e+00 0.0000000e+00 0.0000000e+00 
0.0000000e+00 0.0000000e+00 0.0000000e+00 
0.0000000e+00 0.0000000e+00 0.0000000e+00 
0.0000000e+00 0.0000000e+00 0.0000000e+00 
0.0000000e+00 0.0000000e+00 0.0000000e+00 
0.0000000e+00 0.0000000e+00 0.0000000e+00 
0.0000000e+00 0.0000000e+00 0.0000000e+00 
VON_MISES_STRESS 1 26  float
8.7293594e+09
8.5586596e+09
8.3867735e+09
8.0242156e+09
7.7053496e+09
7.3127122e+09
7.0101949e+09
6.5682268e+09
6.2769940e+09
5.7864300e+09
5.5002726e+09
4.9604844e+09
4.7012178e+09
4.1144438e+09
3.8694464e+09
3.2588145e+09
3.0708664e+09
2.4891730e+09
2.3313667e+09
1.7805290e+09
1.6495235e+09
1.1322596e+09
1.0255062e+09
5.8567501e+08
5.6425472e+08
2.0856597e+08
CELL_DATA 24
FIELD FieldData 0
