# vtk DataFile Version 4.0
vtk output
ASCII
DATASET UNSTRUCTURED_GRID
POINTS 26 float
0.0000000e+00 1.0000000e-01 0.0000000e+00 
0.0000000e+00 0.0000000e+00 0.0000000e+00 
1.4766368e-01 1.0000000e-01 0.0000000e+00 
1.4883940e-01 0.0000000e+00 0.0000000e+00 
3.0036214e-01 1.0000000e-01 0.0000000e+00 
3.0422947e-01 0.0000000e+00 0.0000000e+00 
4.6008557e-01 1.0000000e-01 0.0000000e+00 
4.6697357e-01 0.0000000e+00 0.0000000e+00 
6.2771249e-01 1.0000000e-01 0.0000000e+00 
6.3798475e-01 0.0000000e+00 0.0000000e+00 
8.0424988e-01 1.0000000e-01 0.0000000e+00 
8.1830680e-01 0.0000000e+00 0.0000000e+00 
9.9085975e-01 1.0000000e-01 0.0000000e+00 
1.0091403e+00 0.0000000e+00 0.0000000e+00 
1.1816932e+00 1.0000000e-01 0.0000000e+00 
1.1957501e+00 0.0000000e+00 0.0000000e+00 
1.3620152e+00 1.0000000e-01 0.0000000e+00 
1.3722875e+00 0.0000000e+00 0.0000000e+00 
1.5330265e+00 1.0000000e-01 0.0000000e+00 
1.5399145e+00 0.0000000e+00 0.0000000e+00 
1.6957705e+00 1.0000000e-01 0.0000000e+00 
1.6996379e+00 0.0000000e+00 0.0000000e+00 
1.8511606e+00 1.0000000e-01 0.0000000e+00 
1.8523363e+00 0.0000000e+00 0.0000000e+00 
2.0000000e+00 1.0000000e-01 0.0000000e+00 
2.0000000e+00 0.0000000e+00 0.0000000e+00 

CELLS 24 96
3 25 24 23
3 0 1 2
3 1 3 2
3 2 3 4
3 24 22 23
3 23 22 21
3 3 5 4
3 4 5 6
3 22 20 21
3 21 20 19
3 5 7 6
3 6 7 8
3 20 18 19
3 19 18 17
3 7 9 8
3 8 9 10
3 18 16 17
3 17 16 15
3 9 11 10
3 10 11 12
3 16 14 15
3 15 14 13
3 11 13 12
3 12 13 14

CELL_TYPES 24
5
5
5
5
5
5
5
5
5
5
5
5
5
5
5
5
5
5
5
5
5
5
5
5
POINT_DATA 26
FIELD FieldData 3
DISPLACEMENT 3 26  float
0.0000000e+00 0.0000000e+00 0.0000000e+00 
0.0000000e+00 0.0000000e+00 0.0000000e+00 
6.7394762e-03 -1.3811838e-02 0.0000000e+00 
-1.0072635e-02 -1.2385420e-02 0.0000000e+00 
8.7321727e-03 -5.3492684e-02 0.0000000e+00 
-2.3490615e-02 -4.9336005e-02 0.0000000e+00 
2.1292786e-03 -1.1849561e-01 0.0000000e+00 
-4.3946028e-02 -1.1068804e-01 0.0000000e+00 
-1.6287809e-02 -2.0765184e-01 0.0000000e+00 
-7.4663810e-02 -1.9590969e-01 0.0000000e+00 
-4.9049705e-02 -3.1962508e-01 0.0000000e+00 
-1.1827802e-01 -3.0424014e-01 0.0000000e+00 
-9.7971380e-02 -4.5307860e-01 0.0000000e+00 
-1.7673357e-01 -4.3483639e-01 0.0000000e+00 
-1.6149740e-01 -6.0137522e-01 0.0000000e+00 
-2.4507236e-01 -5.7465523e-01 0.0000000e+00 
-2.3235677e-01 -7.4918312e-01 0.0000000e+00 
-3.1865117e-01 -7.1499425e-01 0.0000000e+00 
-3.0752152e-01 -8.9412707e-01 0.0000000e+00 
-3.9508587e-01 -8.5364735e-01 0.0000000e+00 
-3.8461599e-01 -1.0349131e+00 0.0000000e+00 
-4.7248197e-01 -9.8933464e-01 0.0000000e+00 
-4.6185544e-01 -1.1708976e+00 0.0000000e+00 
-5.4938436e-01 -1.1213517e+00 0.0000000e+00 
-5.3792328e-01 -1.3018115e+00 0.0000000e+00 
-6.2531918e-01 -1.2504076e+00 0.0000000e+00 
REACTION 3 26  float
0.0000000e+00 0.0000000e+00 0.0000000e+00 
0.0000000e+00 0.0000000e+00 0.0000000e+00 
0.0000000e+00 0.0000000e+00 0.0000000e+00 
0.0000000e+00 0.0000000e+00 0.0000000e+00 
0.0000000e+00 0.0000000e+00 0.0000000e+00 
0.0000000e+00 0.0000000e+00 0.0000000e+00 
0.0000000e+00 0.0000000e+00 0.0000000e+00 
0.0000000e+00 0.0000000e+00 0.0000000e+00 
0.0000000e+00 0.0000000e+00 0.0000000e+00 
0.0000000e+00 0.0000000e+00 0.0000000e+00 
0.0000000e+00 0.0000000e+00 0.0000000e+00 
0.0000000e+00 0.0000000e+00 0.0000000e+00 
0.0000000e+00 0.0000000e+00 0.0000000e+00 
0.0000000e+00 0.0000000e+00 0.0000000e+00 
0.0000000e+00 0.0000000e+00 0.0000000e+00 
0.0000000e+00 0.0000000e+00 0.0000000e+00 
0.0000000e+00 0.0000000e+00 0.0000000e+00 
0.0000000e+00 0.0000000e+00 0.0000000e+00 
0.0000000e+00 0.0000000e+00 0.0000000e+00 
0.0000000e+00 0.0000000e+00 0.0000000e+00 
0.0000000e+00 0.0000000e+00 0.0000000e+00 
0.0000000e+00 0.0000000e+00 0.0000000e+00 
0.0000000e+00 0.0000000e+00 0.0000000e+00 
0.0000000e+00 0.0000000e+00 0.0000000e+00 
0.0000000e+00 0.0000000e+00 0.0000000e+00 
0.0000000e+00 0.0000000e+00 0.0000000e+00 
VON_MISES_STRESS 1 26  float
1.6565901e+10
1.6379192e+10
1.5929740e+10
1.5148554e+10
1.4302218e+10
1.3377687e+10
1.2663655e+10
1.1625557e+10
1.1026381e+10
9.9072379e+09
9.4027407e+09
8.2269670e+09
7.8443023e+09
6.6429307e+09
6.3469220e+09
5.1509043e+09
4.9946020e+09
3.8877197e+09
3.8102984e+09
2.7801108e+09
2.7635548e+09
1.7950670e+09
1.8235053e+09
9.1270938e+08
9.4905274e+08
3.2896248e+07
CELL_DATA 24
FIELD FieldData 0
