# vtk DataFile Version 4.0
vtk output
ASCII
DATASET UNSTRUCTURED_GRID
POINTS 26 float
0.0000000e+00 1.0000000e-01 0.0000000e+00 
0.0000000e+00 0.0000000e+00 0.0000000e+00 
1.4766368e-01 1.0000000e-01 0.0000000e+00 
1.4883940e-01 0.0000000e+00 0.0000000e+00 
3.0036214e-01 1.0000000e-01 0.0000000e+00 
3.0422947e-01 0.0000000e+00 0.0000000e+00 
4.6008557e-01 1.0000000e-01 0.0000000e+00 
4.6697357e-01 0.0000000e+00 0.0000000e+00 
6.2771249e-01 1.0000000e-01 0.0000000e+00 
6.3798475e-01 0.0000000e+00 0.0000000e+00 
8.0424988e-01 1.0000000e-01 0.0000000e+00 
8.1830680e-01 0.0000000e+00 0.0000000e+00 
9.9085975e-01 1.0000000e-01 0.0000000e+00 
1.0091403e+00 0.0000000e+00 0.0000000e+00 
1.1816932e+00 1.0000000e-01 0.0000000e+00 
1.1957501e+00 0.0000000e+00 0.0000000e+00 
1.3620152e+00 1.0000000e-01 0.0000000e+00 
1.3722875e+00 0.0000000e+00 0.0000000e+00 
1.5330265e+00 1.0000000e-01 0.0000000e+00 
1.5399145e+00 0.0000000e+00 0.0000000e+00 
1.6957705e+00 1.0000000e-01 0.0000000e+00 
1.6996379e+00 0.0000000e+00 0.0000000e+00 
1.8511606e+00 1.0000000e-01 0.0000000e+00 
1.8523363e+00 0.0000000e+00 0.0000000e+00 
2.0000000e+00 1.0000000e-01 0.0000000e+00 
2.0000000e+00 0.0000000e+00 0.0000000e+00 

CELLS 24 96
3 25 24 23
3 0 1 2
3 1 3 2
3 2 3 4
3 24 22 23
3 23 22 21
3 3 5 4
3 4 5 6
3 22 20 21
3 21 20 19
3 5 7 6
3 6 7 8
3 20 18 19
3 19 18 17
3 7 9 8
3 8 9 10
3 18 16 17
3 17 16 15
3 9 11 10
3 10 11 12
3 16 14 15
3 15 14 13
3 11 13 12
3 12 13 14

CELL_TYPES 24
5
5
5
5
5
5
5
5
5
5
5
5
5
5
5
5
5
5
5
5
5
5
5
5
POINT_DATA 26
FIELD FieldData 3
DISPLACEMENT 3 26  float
0.0000000e+00 0.0000000e+00 0.0000000e+00 
0.0000000e+00 0.0000000e+00 0.0000000e+00 
4.1958704e-03 -7.6275286e-03 0.0000000e+00 
-5.3102183e-03 -7.2499490e-03 0.0000000e+00 
6.7856372e-03 -2.9853053e-02 0.0000000e+00 
-1.1721236e-02 -2.8839009e-02 0.0000000e+00 
6.4817499e-03 -6.7113988e-02 0.0000000e+00 
-2.0529564e-02 -6.5321848e-02 0.0000000e+00 
1.9916599e-03 -1.1969720e-01 0.0000000e+00 
-3.2979324e-02 -1.1717652e-01 0.0000000e+00 
-7.8721885e-03 -1.8779080e-01 0.0000000e+00 
-5.0207336e-02 -1.8478949e-01 0.0000000e+00 
-2.4126384e-02 -2.7146390e-01 0.0000000e+00 
-7.3156558e-02 -2.6841968e-01 0.0000000e+00 
-4.6502672e-02 -3.6708066e-01 0.0000000e+00 
-1.0004401e-01 -3.6008069e-01 0.0000000e+00 
-7.2555639e-02 -4.6466786e-01 0.0000000e+00 
-1.2921605e-01 -4.5391279e-01 0.0000000e+00 
-1.0102749e-01 -5.6211436e-01 0.0000000e+00 
-1.5969133e-01 -5.4800689e-01 0.0000000e+00 
-1.3082816e-01 -6.5798932e-01 0.0000000e+00 
-1.9062227e-01 -6.4103967e-01 0.0000000e+00 
-1.6107224e-01 -7.5134605e-01 0.0000000e+00 
-2.2131303e-01 -7.3210520e-01 0.0000000e+00 
-1.9107024e-01 -8.4156972e-01 0.0000000e+00 
-2.5140759e-01 -8.2130092e-01 0.0000000e+00 
REACTION 3 26  float
0.0000000e+00 0.0000000e+00 0.0000000e+00 
0.0000000e+00 0.0000000e+00 0.0000000e+00 
0.0000000e+00 0.0000000e+00 0.0000000e+00 
0.0000000e+00 0.0000000e+00 0.0000000e+00 
0.0000000e+00 0.0000000e+00 0.0000000e+00 
0.0000000e+00 0.0000000e+00 0.0000000e+00 
0.0000000e+00 0.0000000e+00 0.0000000e+00 
0.0000000e+00 0.0000000e+00 0.0000000e+00 
0.0000000e+00 0.0000000e+00 0.0000000e+00 
0.0000000e+00 0.0000000e+00 0.0000000e+00 
0.0000000e+00 0.0000000e+00 0.0000000e+00 
0.0000000e+00 0.0000000e+00 0.0000000e+00 
0.0000000e+00 0.0000000e+00 0.0000000e+00 
0.0000000e+00 0.0000000e+00 0.0000000e+00 
0.0000000e+00 0.0000000e+00 0.0000000e+00 
0.0000000e+00 0.0000000e+00 0.0000000e+00 
0.0000000e+00 0.0000000e+00 0.0000000e+00 
0.0000000e+00 0.0000000e+00 0.0000000e+00 
0.0000000e+00 0.0000000e+00 0.0000000e+00 
0.0000000e+00 0.0000000e+00 0.0000000e+00 
0.0000000e+00 0.0000000e+00 0.0000000e+00 
0.0000000e+00 0.0000000e+00 0.0000000e+00 
0.0000000e+00 0.0000000e+00 0.0000000e+00 
0.0000000e+00 0.0000000e+00 0.0000000e+00 
0.0000000e+00 0.0000000e+00 0.0000000e+00 
0.0000000e+00 0.0000000e+00 0.0000000e+00 
VON_MISES_STRESS 1 26  float
9.3979443e+09
9.2237926e+09
9.0334874e+09
8.6430546e+09
8.2892667e+09
7.8624998e+09
7.5301294e+09
7.0486415e+09
6.7320837e+09
6.1977216e+09
5.8901340e+09
5.3032238e+09
5.0276920e+09
4.3918705e+09
4.1343447e+09
3.4742413e+09
3.2797632e+09
2.6518228e+09
2.4909353e+09
1.8966230e+09
1.7651649e+09
1.2064291e+09
1.1009071e+09
6.2250470e+08
6.0310688e+08
2.0905435e+08
CELL_DATA 24
FIELD FieldData 0
