# vtk DataFile Version 4.0
vtk output
ASCII
DATASET UNSTRUCTURED_GRID
POINTS 26 float
0.0000000e+00 1.0000000e-01 0.0000000e+00 
0.0000000e+00 0.0000000e+00 0.0000000e+00 
1.4766368e-01 1.0000000e-01 0.0000000e+00 
1.4883940e-01 0.0000000e+00 0.0000000e+00 
3.0036214e-01 1.0000000e-01 0.0000000e+00 
3.0422947e-01 0.0000000e+00 0.0000000e+00 
4.6008557e-01 1.0000000e-01 0.0000000e+00 
4.6697357e-01 0.0000000e+00 0.0000000e+00 
6.2771249e-01 1.0000000e-01 0.0000000e+00 
6.3798475e-01 0.0000000e+00 0.0000000e+00 
8.0424988e-01 1.0000000e-01 0.0000000e+00 
8.1830680e-01 0.0000000e+00 0.0000000e+00 
9.9085975e-01 1.0000000e-01 0.0000000e+00 
1.0091403e+00 0.0000000e+00 0.0000000e+00 
1.1816932e+00 1.0000000e-01 0.0000000e+00 
1.1957501e+00 0.0000000e+00 0.0000000e+00 
1.3620152e+00 1.0000000e-01 0.0000000e+00 
1.3722875e+00 0.0000000e+00 0.0000000e+00 
1.5330265e+00 1.0000000e-01 0.0000000e+00 
1.5399145e+00 0.0000000e+00 0.0000000e+00 
1.6957705e+00 1.0000000e-01 0.0000000e+00 
1.6996379e+00 0.0000000e+00 0.0000000e+00 
1.8511606e+00 1.0000000e-01 0.0000000e+00 
1.8523363e+00 0.0000000e+00 0.0000000e+00 
2.0000000e+00 1.0000000e-01 0.0000000e+00 
2.0000000e+00 0.0000000e+00 0.0000000e+00 

CELLS 24 96
3 25 24 23
3 0 1 2
3 1 3 2
3 2 3 4
3 24 22 23
3 23 22 21
3 3 5 4
3 4 5 6
3 22 20 21
3 21 20 19
3 5 7 6
3 6 7 8
3 20 18 19
3 19 18 17
3 7 9 8
3 8 9 10
3 18 16 17
3 17 16 15
3 9 11 10
3 10 11 12
3 16 14 15
3 15 14 13
3 11 13 12
3 12 13 14

CELL_TYPES 24
5
5
5
5
5
5
5
5
5
5
5
5
5
5
5
5
5
5
5
5
5
5
5
5
POINT_DATA 26
FIELD FieldData 3
DISPLACEMENT 3 26  float
0.0000000e+00 0.0000000e+00 0.0000000e+00 
0.0000000e+00 0.0000000e+00 0.0000000e+00 
6.6544032e-03 -1.3569908e-02 0.0000000e+00 
-9.8812040e-03 -1.2194803e-02 0.0000000e+00 
8.7124687e-03 -5.2587364e-02 0.0000000e+00 
-2.3006774e-02 -4.8583500e-02 0.0000000e+00 
2.4369070e-03 -1.1657833e-01 0.0000000e+00 
-4.2965420e-02 -1.0905740e-01 0.0000000e+00 
-1.5322938e-02 -2.0446531e-01 0.0000000e+00 
-7.2907768e-02 -1.9315213e-01 0.0000000e+00 
-4.7064338e-02 -3.1499824e-01 0.0000000e+00 
-1.1542281e-01 -3.0017582e-01 0.0000000e+00 
-9.4595425e-02 -4.4691133e-01 0.0000000e+00 
-1.7243491e-01 -4.2934543e-01 0.0000000e+00 
-1.5643500e-01 -5.9367061e-01 0.0000000e+00 
-2.3912895e-01 -5.6777912e-01 0.0000000e+00 
-2.2551419e-01 -7.4008840e-01 0.0000000e+00 
-3.1098315e-01 -7.0684463e-01 0.0000000e+00 
-2.9886600e-01 -8.8377315e-01 0.0000000e+00 
-3.8566136e-01 -8.4432632e-01 0.0000000e+00 
-3.7415260e-01 -1.0234063e+00 0.0000000e+00 
-4.6129978e-01 -9.7892672e-01 0.0000000e+00 
-4.4961154e-01 -1.1583192e+00 0.0000000e+00 
-5.3646231e-01 -1.1099223e+00 0.0000000e+00 
-5.2393913e-01 -1.2882205e+00 0.0000000e+00 
-6.1066818e-01 -1.2379955e+00 0.0000000e+00 
REACTION 3 26  float
0.0000000e+00 0.0000000e+00 0.0000000e+00 
0.0000000e+00 0.0000000e+00 0.0000000e+00 
0.0000000e+00 0.0000000e+00 0.0000000e+00 
0.0000000e+00 0.0000000e+00 0.0000000e+00 
0.0000000e+00 0.0000000e+00 0.0000000e+00 
0.0000000e+00 0.0000000e+00 0.0000000e+00 
0.0000000e+00 0.0000000e+00 0.0000000e+00 
0.0000000e+00 0.0000000e+00 0.0000000e+00 
0.0000000e+00 0.0000000e+00 0.0000000e+00 
0.0000000e+00 0.0000000e+00 0.0000000e+00 
0.0000000e+00 0.0000000e+00 0.0000000e+00 
0.0000000e+00 0.0000000e+00 0.0000000e+00 
0.0000000e+00 0.0000000e+00 0.0000000e+00 
0.0000000e+00 0.0000000e+00 0.0000000e+00 
0.0000000e+00 0.0000000e+00 0.0000000e+00 
0.0000000e+00 0.0000000e+00 0.0000000e+00 
0.0000000e+00 0.0000000e+00 0.0000000e+00 
0.0000000e+00 0.0000000e+00 0.0000000e+00 
0.0000000e+00 0.0000000e+00 0.0000000e+00 
0.0000000e+00 0.0000000e+00 0.0000000e+00 
0.0000000e+00 0.0000000e+00 0.0000000e+00 
0.0000000e+00 0.0000000e+00 0.0000000e+00 
0.0000000e+00 0.0000000e+00 0.0000000e+00 
0.0000000e+00 0.0000000e+00 0.0000000e+00 
0.0000000e+00 0.0000000e+00 0.0000000e+00 
0.0000000e+00 0.0000000e+00 0.0000000e+00 
VON_MISES_STRESS 1 26  float
1.6293251e+10
1.6107231e+10
1.5669908e+10
1.4908221e+10
1.4084779e+10
1.3185120e+10
1.2487367e+10
1.1476052e+10
1.0887378e+10
9.7950310e+09
9.2961597e+09
8.1458319e+09
7.7642317e+09
6.5855923e+09
6.2871429e+09
5.1113958e+09
4.9494702e+09
3.8598518e+09
3.7749156e+09
2.7598080e+09
2.7345157e+09
1.7796813e+09
1.7986561e+09
9.0483648e+08
9.3824096e+08
4.6008636e+07
CELL_DATA 24
FIELD FieldData 0
