# vtk DataFile Version 4.0
vtk output
ASCII
DATASET UNSTRUCTURED_GRID
POINTS 26 float
0.0000000e+00 1.0000000e-01 0.0000000e+00 
0.0000000e+00 0.0000000e+00 0.0000000e+00 
1.4766368e-01 1.0000000e-01 0.0000000e+00 
1.4883940e-01 0.0000000e+00 0.0000000e+00 
3.0036214e-01 1.0000000e-01 0.0000000e+00 
3.0422947e-01 0.0000000e+00 0.0000000e+00 
4.6008557e-01 1.0000000e-01 0.0000000e+00 
4.6697357e-01 0.0000000e+00 0.0000000e+00 
6.2771249e-01 1.0000000e-01 0.0000000e+00 
6.3798475e-01 0.0000000e+00 0.0000000e+00 
8.0424988e-01 1.0000000e-01 0.0000000e+00 
8.1830680e-01 0.0000000e+00 0.0000000e+00 
9.9085975e-01 1.0000000e-01 0.0000000e+00 
1.0091403e+00 0.0000000e+00 0.0000000e+00 
1.1816932e+00 1.0000000e-01 0.0000000e+00 
1.1957501e+00 0.0000000e+00 0.0000000e+00 
1.3620152e+00 1.0000000e-01 0.0000000e+00 
1.3722875e+00 0.0000000e+00 0.0000000e+00 
1.5330265e+00 1.0000000e-01 0.0000000e+00 
1.5399145e+00 0.0000000e+00 0.0000000e+00 
1.6957705e+00 1.0000000e-01 0.0000000e+00 
1.6996379e+00 0.0000000e+00 0.0000000e+00 
1.8511606e+00 1.0000000e-01 0.0000000e+00 
1.8523363e+00 0.0000000e+00 0.0000000e+00 
2.0000000e+00 1.0000000e-01 0.0000000e+00 
2.0000000e+00 0.0000000e+00 0.0000000e+00 

CELLS 24 96
3 25 24 23
3 0 1 2
3 1 3 2
3 2 3 4
3 24 22 23
3 23 22 21
3 3 5 4
3 4 5 6
3 22 20 21
3 21 20 19
3 5 7 6
3 6 7 8
3 20 18 19
3 19 18 17
3 7 9 8
3 8 9 10
3 18 16 17
3 17 16 15
3 9 11 10
3 10 11 12
3 16 14 15
3 15 14 13
3 11 13 12
3 12 13 14

CELL_TYPES 24
5
5
5
5
5
5
5
5
5
5
5
5
5
5
5
5
5
5
5
5
5
5
5
5
POINT_DATA 26
FIELD FieldData 3
DISPLACEMENT 3 26  float
0.0000000e+00 0.0000000e+00 0.0000000e+00 
0.0000000e+00 0.0000000e+00 0.0000000e+00 
4.4316199e-04 -7.1725587e-04 0.0000000e+00 
-4.6400551e-04 -7.3081045e-04 0.0000000e+00 
8.4608811e-04 -2.8051729e-03 0.0000000e+00 
-9.2445698e-04 -2.8658945e-03 0.0000000e+00 
1.2061006e-03 -6.3313465e-03 0.0000000e+00 
-1.3912262e-03 -6.4853174e-03 0.0000000e+00 
1.5069116e-03 -1.1370599e-02 0.0000000e+00 
-1.8721451e-03 -1.1670113e-02 0.0000000e+00 
1.7313370e-03 -1.7995652e-02 0.0000000e+00 
-2.3728721e-03 -1.8498069e-02 0.0000000e+00 
1.8620287e-03 -2.6269516e-02 0.0000000e+00 
-2.8951932e-03 -2.7033713e-02 0.0000000e+00 
1.9004489e-03 -3.5869282e-02 0.0000000e+00 
-3.3905706e-03 -3.6480673e-02 0.0000000e+00 
1.8390211e-03 -4.5804467e-02 0.0000000e+00 
-3.8570119e-03 -4.6235889e-02 0.0000000e+00 
1.6970919e-03 -5.5836264e-02 0.0000000e+00 
-4.2899842e-03 -5.6078296e-02 0.0000000e+00 
1.4931401e-03 -6.5786824e-02 0.0000000e+00 
-4.6858364e-03 -6.5843567e-02 0.0000000e+00 
1.2430883e-03 -7.5526863e-02 0.0000000e+00 
-5.0418805e-03 -7.5411305e-02 0.0000000e+00 
9.5951080e-04 -8.4964551e-02 0.0000000e+00 
-5.3535090e-03 -8.4763080e-02 0.0000000e+00 
REACTION 3 26  float
0.0000000e+00 0.0000000e+00 0.0000000e+00 
0.0000000e+00 0.0000000e+00 0.0000000e+00 
0.0000000e+00 0.0000000e+00 0.0000000e+00 
0.0000000e+00 0.0000000e+00 0.0000000e+00 
0.0000000e+00 0.0000000e+00 0.0000000e+00 
0.0000000e+00 0.0000000e+00 0.0000000e+00 
0.0000000e+00 0.0000000e+00 0.0000000e+00 
0.0000000e+00 0.0000000e+00 0.0000000e+00 
0.0000000e+00 0.0000000e+00 0.0000000e+00 
0.0000000e+00 0.0000000e+00 0.0000000e+00 
0.0000000e+00 0.0000000e+00 0.0000000e+00 
0.0000000e+00 0.0000000e+00 0.0000000e+00 
0.0000000e+00 0.0000000e+00 0.0000000e+00 
0.0000000e+00 0.0000000e+00 0.0000000e+00 
0.0000000e+00 0.0000000e+00 0.0000000e+00 
0.0000000e+00 0.0000000e+00 0.0000000e+00 
0.0000000e+00 0.0000000e+00 0.0000000e+00 
0.0000000e+00 0.0000000e+00 0.0000000e+00 
0.0000000e+00 0.0000000e+00 0.0000000e+00 
0.0000000e+00 0.0000000e+00 0.0000000e+00 
0.0000000e+00 0.0000000e+00 0.0000000e+00 
0.0000000e+00 0.0000000e+00 0.0000000e+00 
0.0000000e+00 0.0000000e+00 0.0000000e+00 
0.0000000e+00 0.0000000e+00 0.0000000e+00 
0.0000000e+00 0.0000000e+00 0.0000000e+00 
0.0000000e+00 0.0000000e+00 0.0000000e+00 
VON_MISES_STRESS 1 26  float
9.0783494e+08
8.7592506e+08
8.6300794e+08
8.2069811e+08
7.9738733e+08
7.5602976e+08
7.3093549e+08
6.8675642e+08
6.5950848e+08
6.1192038e+08
5.8202170e+08
5.3025722e+08
5.0028262e+08
4.4355210e+08
4.1276963e+08
3.5355149e+08
3.2712432e+08
2.7084784e+08
2.4647227e+08
1.9365619e+08
1.7153414e+08
1.2322156e+08
1.0418110e+08
6.6123164e+07
6.0458952e+07
3.5756156e+07
CELL_DATA 24
FIELD FieldData 0
