# vtk DataFile Version 4.0
vtk output
ASCII
DATASET UNSTRUCTURED_GRID
POINTS 26 float
0.0000000e+00 1.0000000e-01 0.0000000e+00 
0.0000000e+00 0.0000000e+00 0.0000000e+00 
1.4766368e-01 1.0000000e-01 0.0000000e+00 
1.4883940e-01 0.0000000e+00 0.0000000e+00 
3.0036214e-01 1.0000000e-01 0.0000000e+00 
3.0422947e-01 0.0000000e+00 0.0000000e+00 
4.6008557e-01 1.0000000e-01 0.0000000e+00 
4.6697357e-01 0.0000000e+00 0.0000000e+00 
6.2771249e-01 1.0000000e-01 0.0000000e+00 
6.3798475e-01 0.0000000e+00 0.0000000e+00 
8.0424988e-01 1.0000000e-01 0.0000000e+00 
8.1830680e-01 0.0000000e+00 0.0000000e+00 
9.9085975e-01 1.0000000e-01 0.0000000e+00 
1.0091403e+00 0.0000000e+00 0.0000000e+00 
1.1816932e+00 1.0000000e-01 0.0000000e+00 
1.1957501e+00 0.0000000e+00 0.0000000e+00 
1.3620152e+00 1.0000000e-01 0.0000000e+00 
1.3722875e+00 0.0000000e+00 0.0000000e+00 
1.5330265e+00 1.0000000e-01 0.0000000e+00 
1.5399145e+00 0.0000000e+00 0.0000000e+00 
1.6957705e+00 1.0000000e-01 0.0000000e+00 
1.6996379e+00 0.0000000e+00 0.0000000e+00 
1.8511606e+00 1.0000000e-01 0.0000000e+00 
1.8523363e+00 0.0000000e+00 0.0000000e+00 
2.0000000e+00 1.0000000e-01 0.0000000e+00 
2.0000000e+00 0.0000000e+00 0.0000000e+00 

CELLS 24 96
3 25 24 23
3 0 1 2
3 1 3 2
3 2 3 4
3 24 22 23
3 23 22 21
3 3 5 4
3 4 5 6
3 22 20 21
3 21 20 19
3 5 7 6
3 6 7 8
3 20 18 19
3 19 18 17
3 7 9 8
3 8 9 10
3 18 16 17
3 17 16 15
3 9 11 10
3 10 11 12
3 16 14 15
3 15 14 13
3 11 13 12
3 12 13 14

CELL_TYPES 24
5
5
5
5
5
5
5
5
5
5
5
5
5
5
5
5
5
5
5
5
5
5
5
5
POINT_DATA 26
FIELD FieldData 3
DISPLACEMENT 3 26  float
0.0000000e+00 0.0000000e+00 0.0000000e+00 
0.0000000e+00 0.0000000e+00 0.0000000e+00 
6.7810812e-03 -1.3931367e-02 0.0000000e+00 
-1.0167336e-02 -1.2479321e-02 0.0000000e+00 
8.7403012e-03 -5.3939272e-02 0.0000000e+00 
-2.3730174e-02 -4.9706344e-02 0.0000000e+00 
1.9736525e-03 -1.1943965e-01 0.0000000e+00 
-4.4431768e-02 -1.1148934e-01 0.0000000e+00 
-1.6770497e-02 -2.0921770e-01 0.0000000e+00 
-7.5533435e-02 -1.9726241e-01 0.0000000e+00 
-5.0038379e-02 -3.2189396e-01 0.0000000e+00 
-1.1969084e-01 -3.0623007e-01 0.0000000e+00 
-9.9647433e-02 -4.5609641e-01 0.0000000e+00 
-1.7885830e-01 -4.3751955e-01 0.0000000e+00 
-1.6400491e-01 -6.0513771e-01 0.0000000e+00 
-2.4800678e-01 -5.7800907e-01 0.0000000e+00 
-2.3574015e-01 -7.5361663e-01 0.0000000e+00 
-3.2243317e-01 -7.1896267e-01 0.0000000e+00 
-3.1179553e-01 -8.9916682e-01 0.0000000e+00 
-3.9973018e-01 -8.5817969e-01 0.0000000e+00 
-3.8977721e-01 -1.0405068e+00 0.0000000e+00 
-4.7798845e-01 -9.9438900e-01 0.0000000e+00 
-4.6789002e-01 -1.1770055e+00 0.0000000e+00 
-5.5574393e-01 -1.1268960e+00 0.0000000e+00 
-5.4481125e-01 -1.3084048e+00 0.0000000e+00 
-6.3252664e-01 -1.2564226e+00 0.0000000e+00 
REACTION 3 26  float
0.0000000e+00 0.0000000e+00 0.0000000e+00 
0.0000000e+00 0.0000000e+00 0.0000000e+00 
0.0000000e+00 0.0000000e+00 0.0000000e+00 
0.0000000e+00 0.0000000e+00 0.0000000e+00 
0.0000000e+00 0.0000000e+00 0.0000000e+00 
0.0000000e+00 0.0000000e+00 0.0000000e+00 
0.0000000e+00 0.0000000e+00 0.0000000e+00 
0.0000000e+00 0.0000000e+00 0.0000000e+00 
0.0000000e+00 0.0000000e+00 0.0000000e+00 
0.0000000e+00 0.0000000e+00 0.0000000e+00 
0.0000000e+00 0.0000000e+00 0.0000000e+00 
0.0000000e+00 0.0000000e+00 0.0000000e+00 
0.0000000e+00 0.0000000e+00 0.0000000e+00 
0.0000000e+00 0.0000000e+00 0.0000000e+00 
0.0000000e+00 0.0000000e+00 0.0000000e+00 
0.0000000e+00 0.0000000e+00 0.0000000e+00 
0.0000000e+00 0.0000000e+00 0.0000000e+00 
0.0000000e+00 0.0000000e+00 0.0000000e+00 
0.0000000e+00 0.0000000e+00 0.0000000e+00 
0.0000000e+00 0.0000000e+00 0.0000000e+00 
0.0000000e+00 0.0000000e+00 0.0000000e+00 
0.0000000e+00 0.0000000e+00 0.0000000e+00 
0.0000000e+00 0.0000000e+00 0.0000000e+00 
0.0000000e+00 0.0000000e+00 0.0000000e+00 
0.0000000e+00 0.0000000e+00 0.0000000e+00 
0.0000000e+00 0.0000000e+00 0.0000000e+00 
VON_MISES_STRESS 1 26  float
1.6700381e+10
1.6513296e+10
1.6057790e+10
1.5266809e+10
1.4409059e+10
1.3472048e+10
1.2749950e+10
1.1698452e+10
1.1094126e+10
9.9616215e+09
9.4544271e+09
8.2660137e+09
7.8829338e+09
6.6703206e+09
6.3756472e+09
5.1696440e+09
5.0162483e+09
3.9008873e+09
3.8273075e+09
2.7897367e+09
2.7776220e+09
1.8024791e+09
1.8357148e+09
9.1652781e+08
9.5432627e+08
2.6238882e+07
CELL_DATA 24
FIELD FieldData 0
