# vtk DataFile Version 4.0
vtk output
ASCII
DATASET UNSTRUCTURED_GRID
POINTS 26 float
0.0000000e+00 1.0000000e-01 0.0000000e+00 
0.0000000e+00 0.0000000e+00 0.0000000e+00 
1.4766368e-01 1.0000000e-01 0.0000000e+00 
1.4883940e-01 0.0000000e+00 0.0000000e+00 
3.0036214e-01 1.0000000e-01 0.0000000e+00 
3.0422947e-01 0.0000000e+00 0.0000000e+00 
4.6008557e-01 1.0000000e-01 0.0000000e+00 
4.6697357e-01 0.0000000e+00 0.0000000e+00 
6.2771249e-01 1.0000000e-01 0.0000000e+00 
6.3798475e-01 0.0000000e+00 0.0000000e+00 
8.0424988e-01 1.0000000e-01 0.0000000e+00 
8.1830680e-01 0.0000000e+00 0.0000000e+00 
9.9085975e-01 1.0000000e-01 0.0000000e+00 
1.0091403e+00 0.0000000e+00 0.0000000e+00 
1.1816932e+00 1.0000000e-01 0.0000000e+00 
1.1957501e+00 0.0000000e+00 0.0000000e+00 
1.3620152e+00 1.0000000e-01 0.0000000e+00 
1.3722875e+00 0.0000000e+00 0.0000000e+00 
1.5330265e+00 1.0000000e-01 0.0000000e+00 
1.5399145e+00 0.0000000e+00 0.0000000e+00 
1.6957705e+00 1.0000000e-01 0.0000000e+00 
1.6996379e+00 0.0000000e+00 0.0000000e+00 
1.8511606e+00 1.0000000e-01 0.0000000e+00 
1.8523363e+00 0.0000000e+00 0.0000000e+00 
2.0000000e+00 1.0000000e-01 0.0000000e+00 
2.0000000e+00 0.0000000e+00 0.0000000e+00 

CELLS 24 96
3 25 24 23
3 0 1 2
3 1 3 2
3 2 3 4
3 24 22 23
3 23 22 21
3 3 5 4
3 4 5 6
3 22 20 21
3 21 20 19
3 5 7 6
3 6 7 8
3 20 18 19
3 19 18 17
3 7 9 8
3 8 9 10
3 18 16 17
3 17 16 15
3 9 11 10
3 10 11 12
3 16 14 15
3 15 14 13
3 11 13 12
3 12 13 14

CELL_TYPES 24
5
5
5
5
5
5
5
5
5
5
5
5
5
5
5
5
5
5
5
5
5
5
5
5
POINT_DATA 26
FIELD FieldData 3
DISPLACEMENT 3 26  float
0.0000000e+00 0.0000000e+00 0.0000000e+00 
0.0000000e+00 0.0000000e+00 0.0000000e+00 
6.0852435e-03 -1.2028981e-02 0.0000000e+00 
-8.6703170e-03 -1.0962566e-02 0.0000000e+00 
8.4828455e-03 -4.6778645e-02 0.0000000e+00 
-1.9960985e-02 -4.3697789e-02 0.0000000e+00 
4.1549797e-03 -1.0416923e-01 0.0000000e+00 
-3.6812287e-02 -9.8394595e-02 0.0000000e+00 
-9.5875403e-03 -1.8364178e-01 0.0000000e+00 
-6.1883658e-02 -1.7496763e-01 0.0000000e+00 
-3.4979280e-02 -2.8445399e-01 0.0000000e+00 
-9.7439252e-02 -2.7312604e-01 0.0000000e+00 
-7.3728859e-02 -4.0577537e-01 0.0000000e+00 
-1.4522758e-01 -3.9244720e-01 0.0000000e+00 
-1.2478552e-01 -5.4176819e-01 0.0000000e+00 
-2.0131843e-01 -5.2115345e-01 0.0000000e+00 
-1.8236706e-01 -6.7828977e-01 0.0000000e+00 
-2.6197082e-01 -6.5113640e-01 0.0000000e+00 
-2.4392267e-01 -8.1288975e-01 0.0000000e+00 
-3.2517564e-01 -7.8015506e-01 0.0000000e+00 
-3.0738786e-01 -9.4412214e-01 0.0000000e+00 
-3.8929150e-01 -9.0682429e-01 0.0000000e+00 
-3.7117225e-01 -1.0711769e+00 0.0000000e+00 
-4.5302841e-01 -1.0303129e+00 0.0000000e+00 
-4.3408090e-01 -1.1936297e+00 0.0000000e+00 
-5.1588547e-01 -1.1511335e+00 0.0000000e+00 
REACTION 3 26  float
0.0000000e+00 0.0000000e+00 0.0000000e+00 
0.0000000e+00 0.0000000e+00 0.0000000e+00 
0.0000000e+00 0.0000000e+00 0.0000000e+00 
0.0000000e+00 0.0000000e+00 0.0000000e+00 
0.0000000e+00 0.0000000e+00 0.0000000e+00 
0.0000000e+00 0.0000000e+00 0.0000000e+00 
0.0000000e+00 0.0000000e+00 0.0000000e+00 
0.0000000e+00 0.0000000e+00 0.0000000e+00 
0.0000000e+00 0.0000000e+00 0.0000000e+00 
0.0000000e+00 0.0000000e+00 0.0000000e+00 
0.0000000e+00 0.0000000e+00 0.0000000e+00 
0.0000000e+00 0.0000000e+00 0.0000000e+00 
0.0000000e+00 0.0000000e+00 0.0000000e+00 
0.0000000e+00 0.0000000e+00 0.0000000e+00 
0.0000000e+00 0.0000000e+00 0.0000000e+00 
0.0000000e+00 0.0000000e+00 0.0000000e+00 
0.0000000e+00 0.0000000e+00 0.0000000e+00 
0.0000000e+00 0.0000000e+00 0.0000000e+00 
0.0000000e+00 0.0000000e+00 0.0000000e+00 
0.0000000e+00 0.0000000e+00 0.0000000e+00 
0.0000000e+00 0.0000000e+00 0.0000000e+00 
0.0000000e+00 0.0000000e+00 0.0000000e+00 
0.0000000e+00 0.0000000e+00 0.0000000e+00 
0.0000000e+00 0.0000000e+00 0.0000000e+00 
0.0000000e+00 0.0000000e+00 0.0000000e+00 
0.0000000e+00 0.0000000e+00 0.0000000e+00 
VON_MISES_STRESS 1 26  float
1.4542046e+10
1.4358766e+10
1.3994813e+10
1.3347646e+10
1.2663250e+10
1.1910304e+10
1.1314341e+10
1.0463188e+10
9.9433912e+09
9.0139197e+09
8.5557816e+09
7.5630377e+09
7.1949532e+09
6.1602678e+09
5.8543478e+09
4.8093947e+09
4.6198262e+09
3.6433196e+09
3.5187361e+09
2.6038487e+09
2.5309852e+09
1.6684929e+09
1.6351354e+09
8.4930810e+08
8.6468736e+08
1.1790997e+08
CELL_DATA 24
FIELD FieldData 0
