# vtk DataFile Version 4.0
vtk output
ASCII
DATASET UNSTRUCTURED_GRID
POINTS 26 float
0.0000000e+00 1.0000000e-01 0.0000000e+00 
0.0000000e+00 0.0000000e+00 0.0000000e+00 
1.4766368e-01 1.0000000e-01 0.0000000e+00 
1.4883940e-01 0.0000000e+00 0.0000000e+00 
3.0036214e-01 1.0000000e-01 0.0000000e+00 
3.0422947e-01 0.0000000e+00 0.0000000e+00 
4.6008557e-01 1.0000000e-01 0.0000000e+00 
4.6697357e-01 0.0000000e+00 0.0000000e+00 
6.2771249e-01 1.0000000e-01 0.0000000e+00 
6.3798475e-01 0.0000000e+00 0.0000000e+00 
8.0424988e-01 1.0000000e-01 0.0000000e+00 
8.1830680e-01 0.0000000e+00 0.0000000e+00 
9.9085975e-01 1.0000000e-01 0.0000000e+00 
1.0091403e+00 0.0000000e+00 0.0000000e+00 
1.1816932e+00 1.0000000e-01 0.0000000e+00 
1.1957501e+00 0.0000000e+00 0.0000000e+00 
1.3620152e+00 1.0000000e-01 0.0000000e+00 
1.3722875e+00 0.0000000e+00 0.0000000e+00 
1.5330265e+00 1.0000000e-01 0.0000000e+00 
1.5399145e+00 0.0000000e+00 0.0000000e+00 
1.6957705e+00 1.0000000e-01 0.0000000e+00 
1.6996379e+00 0.0000000e+00 0.0000000e+00 
1.8511606e+00 1.0000000e-01 0.0000000e+00 
1.8523363e+00 0.0000000e+00 0.0000000e+00 
2.0000000e+00 1.0000000e-01 0.0000000e+00 
2.0000000e+00 0.0000000e+00 0.0000000e+00 

CELLS 24 96
3 25 24 23
3 0 1 2
3 1 3 2
3 2 3 4
3 24 22 23
3 23 22 21
3 3 5 4
3 4 5 6
3 22 20 21
3 21 20 19
3 5 7 6
3 6 7 8
3 20 18 19
3 19 18 17
3 7 9 8
3 8 9 10
3 18 16 17
3 17 16 15
3 9 11 10
3 10 11 12
3 16 14 15
3 15 14 13
3 11 13 12
3 12 13 14

CELL_TYPES 24
5
5
5
5
5
5
5
5
5
5
5
5
5
5
5
5
5
5
5
5
5
5
5
5
POINT_DATA 26
FIELD FieldData 3
DISPLACEMENT 3 26  float
0.0000000e+00 0.0000000e+00 0.0000000e+00 
0.0000000e+00 0.0000000e+00 0.0000000e+00 
6.9803246e-03 -1.4515382e-02 0.0000000e+00 
-1.0631194e-02 -1.2935553e-02 0.0000000e+00 
8.7648788e-03 -5.6114554e-02 0.0000000e+00 
-2.4905264e-02 -5.1502220e-02 0.0000000e+00 
1.1794000e-03 -1.2402137e-01 0.0000000e+00 
-4.6816267e-02 -1.1536352e-01 0.0000000e+00 
-1.9183619e-02 -2.1678726e-01 0.0000000e+00 
-7.9799600e-02 -2.0377998e-01 0.0000000e+00 
-5.4938275e-02 -3.3281693e-01 0.0000000e+00 
-1.2661009e-01 -3.1578231e-01 0.0000000e+00 
-1.0790542e-01 -4.7056514e-01 0.0000000e+00 
-1.8924086e-01 -4.5034987e-01 0.0000000e+00 
-1.7630440e-01 -6.2310576e-01 0.0000000e+00 
-2.6231354e-01 -5.9398878e-01 0.0000000e+00 
-2.5227961e-01 -7.7471751e-01 0.0000000e+00 
-3.4083498e-01 -7.3781085e-01 0.0000000e+00 
-3.3263353e-01 -9.2308277e-01 0.0000000e+00 
-4.2228824e-01 -8.7964565e-01 0.0000000e+00 
-4.1488886e-01 -1.0669848e+00 0.0000000e+00 
-5.0469595e-01 -1.0182686e+00 0.0000000e+00 
-4.9720395e-01 -1.2058551e+00 0.0000000e+00 
-5.8655441e-01 -1.1530339e+00 0.0000000e+00 
-5.7823056e-01 -1.3394914e+00 0.0000000e+00 
-6.6741508e-01 -1.2847264e+00 0.0000000e+00 
REACTION 3 26  float
0.0000000e+00 0.0000000e+00 0.0000000e+00 
0.0000000e+00 0.0000000e+00 0.0000000e+00 
0.0000000e+00 0.0000000e+00 0.0000000e+00 
0.0000000e+00 0.0000000e+00 0.0000000e+00 
0.0000000e+00 0.0000000e+00 0.0000000e+00 
0.0000000e+00 0.0000000e+00 0.0000000e+00 
0.0000000e+00 0.0000000e+00 0.0000000e+00 
0.0000000e+00 0.0000000e+00 0.0000000e+00 
0.0000000e+00 0.0000000e+00 0.0000000e+00 
0.0000000e+00 0.0000000e+00 0.0000000e+00 
0.0000000e+00 0.0000000e+00 0.0000000e+00 
0.0000000e+00 0.0000000e+00 0.0000000e+00 
0.0000000e+00 0.0000000e+00 0.0000000e+00 
0.0000000e+00 0.0000000e+00 0.0000000e+00 
0.0000000e+00 0.0000000e+00 0.0000000e+00 
0.0000000e+00 0.0000000e+00 0.0000000e+00 
0.0000000e+00 0.0000000e+00 0.0000000e+00 
0.0000000e+00 0.0000000e+00 0.0000000e+00 
0.0000000e+00 0.0000000e+00 0.0000000e+00 
0.0000000e+00 0.0000000e+00 0.0000000e+00 
0.0000000e+00 0.0000000e+00 0.0000000e+00 
0.0000000e+00 0.0000000e+00 0.0000000e+00 
0.0000000e+00 0.0000000e+00 0.0000000e+00 
0.0000000e+00 0.0000000e+00 0.0000000e+00 
0.0000000e+00 0.0000000e+00 0.0000000e+00 
0.0000000e+00 0.0000000e+00 0.0000000e+00 
VON_MISES_STRESS 1 26  float
1.7355305e+10
1.7166044e+10
1.6680374e+10
1.5839956e+10
1.4925452e+10
1.3925622e+10
1.3163911e+10
1.2045346e+10
1.1416249e+10
1.0217309e+10
9.6977582e+09
8.4469535e+09
8.0629115e+09
6.7952886e+09
6.5083766e+09
5.2538629e+09
5.1158973e+09
3.9595986e+09
3.9060027e+09
2.8330048e+09
2.8437683e+09
1.8369951e+09
1.8948109e+09
9.3981286e+08
9.8738886e+08
7.9722010e+06
CELL_DATA 24
FIELD FieldData 0
