# vtk DataFile Version 4.0
vtk output
ASCII
DATASET UNSTRUCTURED_GRID
POINTS 26 float
0.0000000e+00 1.0000000e-01 0.0000000e+00 
0.0000000e+00 0.0000000e+00 0.0000000e+00 
1.4766368e-01 1.0000000e-01 0.0000000e+00 
1.4883940e-01 0.0000000e+00 0.0000000e+00 
3.0036214e-01 1.0000000e-01 0.0000000e+00 
3.0422947e-01 0.0000000e+00 0.0000000e+00 
4.6008557e-01 1.0000000e-01 0.0000000e+00 
4.6697357e-01 0.0000000e+00 0.0000000e+00 
6.2771249e-01 1.0000000e-01 0.0000000e+00 
6.3798475e-01 0.0000000e+00 0.0000000e+00 
8.0424988e-01 1.0000000e-01 0.0000000e+00 
8.1830680e-01 0.0000000e+00 0.0000000e+00 
9.9085975e-01 1.0000000e-01 0.0000000e+00 
1.0091403e+00 0.0000000e+00 0.0000000e+00 
1.1816932e+00 1.0000000e-01 0.0000000e+00 
1.1957501e+00 0.0000000e+00 0.0000000e+00 
1.3620152e+00 1.0000000e-01 0.0000000e+00 
1.3722875e+00 0.0000000e+00 0.0000000e+00 
1.5330265e+00 1.0000000e-01 0.0000000e+00 
1.5399145e+00 0.0000000e+00 0.0000000e+00 
1.6957705e+00 1.0000000e-01 0.0000000e+00 
1.6996379e+00 0.0000000e+00 0.0000000e+00 
1.8511606e+00 1.0000000e-01 0.0000000e+00 
1.8523363e+00 0.0000000e+00 0.0000000e+00 
2.0000000e+00 1.0000000e-01 0.0000000e+00 
2.0000000e+00 0.0000000e+00 0.0000000e+00 

CELLS 24 96
3 25 24 23
3 0 1 2
3 1 3 2
3 2 3 4
3 24 22 23
3 23 22 21
3 3 5 4
3 4 5 6
3 22 20 21
3 21 20 19
3 5 7 6
3 6 7 8
3 20 18 19
3 19 18 17
3 7 9 8
3 8 9 10
3 18 16 17
3 17 16 15
3 9 11 10
3 10 11 12
3 16 14 15
3 15 14 13
3 11 13 12
3 12 13 14

CELL_TYPES 24
5
5
5
5
5
5
5
5
5
5
5
5
5
5
5
5
5
5
5
5
5
5
5
5
POINT_DATA 26
FIELD FieldData 3
DISPLACEMENT 3 26  float
0.0000000e+00 0.0000000e+00 0.0000000e+00 
0.0000000e+00 0.0000000e+00 0.0000000e+00 
5.4550441e-03 -1.0455890e-02 0.0000000e+00 
-7.4509135e-03 -9.6702119e-03 0.0000000e+00 
8.0572069e-03 -4.0779643e-02 0.0000000e+00 
-1.6927326e-02 -3.8541991e-02 0.0000000e+00 
5.4484704e-03 -9.1173813e-02 0.0000000e+00 
-3.0736638e-02 -8.7014735e-02 0.0000000e+00 
-4.5572310e-03 -1.6149075e-01 0.0000000e+00 
-5.1020190e-02 -1.5529436e-01 0.0000000e+00 
-2.3853039e-02 -2.5141779e-01 0.0000000e+00 
-7.9657540e-02 -2.4341871e-01 0.0000000e+00 
-5.3955793e-02 -3.6051849e-01 0.0000000e+00 
-1.1814743e-01 -3.5127911e-01 0.0000000e+00 
-9.4171382e-02 -4.8372039e-01 0.0000000e+00 
-1.6340244e-01 -4.6835303e-01 0.0000000e+00 
-1.3999687e-01 -6.0817522e-01 0.0000000e+00 
-2.1247014e-01 -5.8720911e-01 0.0000000e+00 
-1.8934090e-01 -7.3146343e-01 0.0000000e+00 
-2.6370445e-01 -7.0565176e-01 0.0000000e+00 
-2.4046619e-01 -8.5207218e-01 0.0000000e+00 
-3.1573009e-01 -8.2225794e-01 0.0000000e+00 
-2.9200652e-01 -9.6908855e-01 0.0000000e+00 
-3.6744684e-01 -9.3612295e-01 0.0000000e+00 
-3.4292063e-01 -1.0819805e+00 0.0000000e+00 
-4.1837418e-01 -1.0475919e+00 0.0000000e+00 
REACTION 3 26  float
0.0000000e+00 0.0000000e+00 0.0000000e+00 
0.0000000e+00 0.0000000e+00 0.0000000e+00 
0.0000000e+00 0.0000000e+00 0.0000000e+00 
0.0000000e+00 0.0000000e+00 0.0000000e+00 
0.0000000e+00 0.0000000e+00 0.0000000e+00 
0.0000000e+00 0.0000000e+00 0.0000000e+00 
0.0000000e+00 0.0000000e+00 0.0000000e+00 
0.0000000e+00 0.0000000e+00 0.0000000e+00 
0.0000000e+00 0.0000000e+00 0.0000000e+00 
0.0000000e+00 0.0000000e+00 0.0000000e+00 
0.0000000e+00 0.0000000e+00 0.0000000e+00 
0.0000000e+00 0.0000000e+00 0.0000000e+00 
0.0000000e+00 0.0000000e+00 0.0000000e+00 
0.0000000e+00 0.0000000e+00 0.0000000e+00 
0.0000000e+00 0.0000000e+00 0.0000000e+00 
0.0000000e+00 0.0000000e+00 0.0000000e+00 
0.0000000e+00 0.0000000e+00 0.0000000e+00 
0.0000000e+00 0.0000000e+00 0.0000000e+00 
0.0000000e+00 0.0000000e+00 0.0000000e+00 
0.0000000e+00 0.0000000e+00 0.0000000e+00 
0.0000000e+00 0.0000000e+00 0.0000000e+00 
0.0000000e+00 0.0000000e+00 0.0000000e+00 
0.0000000e+00 0.0000000e+00 0.0000000e+00 
0.0000000e+00 0.0000000e+00 0.0000000e+00 
0.0000000e+00 0.0000000e+00 0.0000000e+00 
0.0000000e+00 0.0000000e+00 0.0000000e+00 
VON_MISES_STRESS 1 26  float
1.2727833e+10
1.2546016e+10
1.2250128e+10
1.1704689e+10
1.1149877e+10
1.0527507e+10
1.0031064e+10
9.3257329e+09
8.8784712e+09
8.1015491e+09
7.6924631e+09
6.8522578e+09
6.5089997e+09
5.6192768e+09
5.3195044e+09
4.4106286e+09
4.2071493e+09
3.3513628e+09
3.2009590e+09
2.3953746e+09
2.2885258e+09
1.5287763e+09
1.4565158e+09
7.8086938e+08
7.8032506e+08
1.7006074e+08
CELL_DATA 24
FIELD FieldData 0
