# vtk DataFile Version 4.0
vtk output
ASCII
DATASET UNSTRUCTURED_GRID
POINTS 26 float
0.0000000e+00 1.0000000e-01 0.0000000e+00 
0.0000000e+00 0.0000000e+00 0.0000000e+00 
1.4766368e-01 1.0000000e-01 0.0000000e+00 
1.4883940e-01 0.0000000e+00 0.0000000e+00 
3.0036214e-01 1.0000000e-01 0.0000000e+00 
3.0422947e-01 0.0000000e+00 0.0000000e+00 
4.6008557e-01 1.0000000e-01 0.0000000e+00 
4.6697357e-01 0.0000000e+00 0.0000000e+00 
6.2771249e-01 1.0000000e-01 0.0000000e+00 
6.3798475e-01 0.0000000e+00 0.0000000e+00 
8.0424988e-01 1.0000000e-01 0.0000000e+00 
8.1830680e-01 0.0000000e+00 0.0000000e+00 
9.9085975e-01 1.0000000e-01 0.0000000e+00 
1.0091403e+00 0.0000000e+00 0.0000000e+00 
1.1816932e+00 1.0000000e-01 0.0000000e+00 
1.1957501e+00 0.0000000e+00 0.0000000e+00 
1.3620152e+00 1.0000000e-01 0.0000000e+00 
1.3722875e+00 0.0000000e+00 0.0000000e+00 
1.5330265e+00 1.0000000e-01 0.0000000e+00 
1.5399145e+00 0.0000000e+00 0.0000000e+00 
1.6957705e+00 1.0000000e-01 0.0000000e+00 
1.6996379e+00 0.0000000e+00 0.0000000e+00 
1.8511606e+00 1.0000000e-01 0.0000000e+00 
1.8523363e+00 0.0000000e+00 0.0000000e+00 
2.0000000e+00 1.0000000e-01 0.0000000e+00 
2.0000000e+00 0.0000000e+00 0.0000000e+00 

CELLS 24 96
3 25 24 23
3 0 1 2
3 1 3 2
3 2 3 4
3 24 22 23
3 23 22 21
3 3 5 4
3 4 5 6
3 22 20 21
3 21 20 19
3 5 7 6
3 6 7 8
3 20 18 19
3 19 18 17
3 7 9 8
3 8 9 10
3 18 16 17
3 17 16 15
3 9 11 10
3 10 11 12
3 16 14 15
3 15 14 13
3 11 13 12
3 12 13 14

CELL_TYPES 24
5
5
5
5
5
5
5
5
5
5
5
5
5
5
5
5
5
5
5
5
5
5
5
5
POINT_DATA 26
FIELD FieldData 3
DISPLACEMENT 3 26  float
0.0000000e+00 0.0000000e+00 0.0000000e+00 
0.0000000e+00 0.0000000e+00 0.0000000e+00 
2.4506042e-03 -4.1954103e-03 0.0000000e+00 
-2.8248213e-03 -4.1266815e-03 0.0000000e+00 
4.3407376e-03 -1.6440786e-02 0.0000000e+00 
-5.9631807e-03 -1.6326154e-02 0.0000000e+00 
5.2943402e-03 -3.7097145e-02 0.0000000e+00 
-9.8209288e-03 -3.7023108e-02 0.0000000e+00 
4.8813778e-03 -6.6513181e-02 0.0000000e+00 
-1.4792656e-02 -6.6635363e-02 0.0000000e+00 
2.6858072e-03 -1.0500868e-01 0.0000000e+00 
-2.1245632e-02 -1.0555340e-01 0.0000000e+00 
-1.6700545e-03 -1.5283982e-01 0.0000000e+00 
-2.9486327e-02 -1.5409474e-01 0.0000000e+00 
-8.1354603e-03 -2.0807397e-01 0.0000000e+00 
-3.8869351e-02 -2.0771255e-01 0.0000000e+00 
-1.6030135e-02 -2.6497844e-01 0.0000000e+00 
-4.8901759e-02 -2.6297539e-01 0.0000000e+00 
-2.4923248e-02 -3.2222480e-01 0.0000000e+00 
-5.9267875e-02 -3.1867185e-01 0.0000000e+00 
-3.4425527e-02 -3.7885308e-01 0.0000000e+00 
-6.9688499e-02 -3.7391791e-01 0.0000000e+00 
-4.4211134e-02 -4.3418509e-01 0.0000000e+00 
-7.9930753e-02 -4.2807651e-01 0.0000000e+00 
-5.4022051e-02 -4.8775101e-01 0.0000000e+00 
-8.9854822e-02 -4.8110065e-01 0.0000000e+00 
REACTION 3 26  float
0.0000000e+00 0.0000000e+00 0.0000000e+00 
0.0000000e+00 0.0000000e+00 0.0000000e+00 
0.0000000e+00 0.0000000e+00 0.0000000e+00 
0.0000000e+00 0.0000000e+00 0.0000000e+00 
0.0000000e+00 0.0000000e+00 0.0000000e+00 
0.0000000e+00 0.0000000e+00 0.0000000e+00 
0.0000000e+00 0.0000000e+00 0.0000000e+00 
0.0000000e+00 0.0000000e+00 0.0000000e+00 
0.0000000e+00 0.0000000e+00 0.0000000e+00 
0.0000000e+00 0.0000000e+00 0.0000000e+00 
0.0000000e+00 0.0000000e+00 0.0000000e+00 
0.0000000e+00 0.0000000e+00 0.0000000e+00 
0.0000000e+00 0.0000000e+00 0.0000000e+00 
0.0000000e+00 0.0000000e+00 0.0000000e+00 
0.0000000e+00 0.0000000e+00 0.0000000e+00 
0.0000000e+00 0.0000000e+00 0.0000000e+00 
0.0000000e+00 0.0000000e+00 0.0000000e+00 
0.0000000e+00 0.0000000e+00 0.0000000e+00 
0.0000000e+00 0.0000000e+00 0.0000000e+00 
0.0000000e+00 0.0000000e+00 0.0000000e+00 
0.0000000e+00 0.0000000e+00 0.0000000e+00 
0.0000000e+00 0.0000000e+00 0.0000000e+00 
0.0000000e+00 0.0000000e+00 0.0000000e+00 
0.0000000e+00 0.0000000e+00 0.0000000e+00 
0.0000000e+00 0.0000000e+00 0.0000000e+00 
0.0000000e+00 0.0000000e+00 0.0000000e+00 
VON_MISES_STRESS 1 26  float
5.2416620e+09
5.1067571e+09
5.0176051e+09
4.7938181e+09
4.6304686e+09
4.3995863e+09
4.2361836e+09
3.9810414e+09
3.8149046e+09
3.5336010e+09
3.3613440e+09
3.0511414e+09
2.8867699e+09
2.5458650e+09
2.3831665e+09
2.0258676e+09
1.8929030e+09
1.5514012e+09
1.4333759e+09
1.1101271e+09
1.0065832e+09
7.0568198e+08
6.1759904e+08
3.7038550e+08
3.4766070e+08
1.6603578e+08
CELL_DATA 24
FIELD FieldData 0
