# vtk DataFile Version 4.0
vtk output
ASCII
DATASET UNSTRUCTURED_GRID
POINTS 26 float
0.0000000e+00 1.0000000e-01 0.0000000e+00 
0.0000000e+00 0.0000000e+00 0.0000000e+00 
1.4766368e-01 1.0000000e-01 0.0000000e+00 
1.4883940e-01 0.0000000e+00 0.0000000e+00 
3.0036214e-01 1.0000000e-01 0.0000000e+00 
3.0422947e-01 0.0000000e+00 0.0000000e+00 
4.6008557e-01 1.0000000e-01 0.0000000e+00 
4.6697357e-01 0.0000000e+00 0.0000000e+00 
6.2771249e-01 1.0000000e-01 0.0000000e+00 
6.3798475e-01 0.0000000e+00 0.0000000e+00 
8.0424988e-01 1.0000000e-01 0.0000000e+00 
8.1830680e-01 0.0000000e+00 0.0000000e+00 
9.9085975e-01 1.0000000e-01 0.0000000e+00 
1.0091403e+00 0.0000000e+00 0.0000000e+00 
1.1816932e+00 1.0000000e-01 0.0000000e+00 
1.1957501e+00 0.0000000e+00 0.0000000e+00 
1.3620152e+00 1.0000000e-01 0.0000000e+00 
1.3722875e+00 0.0000000e+00 0.0000000e+00 
1.5330265e+00 1.0000000e-01 0.0000000e+00 
1.5399145e+00 0.0000000e+00 0.0000000e+00 
1.6957705e+00 1.0000000e-01 0.0000000e+00 
1.6996379e+00 0.0000000e+00 0.0000000e+00 
1.8511606e+00 1.0000000e-01 0.0000000e+00 
1.8523363e+00 0.0000000e+00 0.0000000e+00 
2.0000000e+00 1.0000000e-01 0.0000000e+00 
2.0000000e+00 0.0000000e+00 0.0000000e+00 

CELLS 24 96
3 25 24 23
3 0 1 2
3 1 3 2
3 2 3 4
3 24 22 23
3 23 22 21
3 3 5 4
3 4 5 6
3 22 20 21
3 21 20 19
3 5 7 6
3 6 7 8
3 20 18 19
3 19 18 17
3 7 9 8
3 8 9 10
3 18 16 17
3 17 16 15
3 9 11 10
3 10 11 12
3 16 14 15
3 15 14 13
3 11 13 12
3 12 13 14

CELL_TYPES 24
5
5
5
5
5
5
5
5
5
5
5
5
5
5
5
5
5
5
5
5
5
5
5
5
POINT_DATA 26
FIELD FieldData 3
DISPLACEMENT 3 26  float
0.0000000e+00 0.0000000e+00 0.0000000e+00 
0.0000000e+00 0.0000000e+00 0.0000000e+00 
6.4763934e-03 -1.3073991e-02 0.0000000e+00 
-9.4898818e-03 -1.1801700e-02 0.0000000e+00 
8.6583486e-03 -5.0725803e-02 0.0000000e+00 
-2.2019507e-02 -4.7028702e-02 0.0000000e+00 
3.0360781e-03 -1.1262141e-01 0.0000000e+00 
-4.0966760e-02 -1.0567807e-01 0.0000000e+00 
-1.3397549e-02 -1.9786227e-01 0.0000000e+00 
-6.9327228e-02 -1.8741710e-01 0.0000000e+00 
-4.3064427e-02 -3.0536985e-01 0.0000000e+00 
-1.0959221e-01 -2.9169056e-01 0.0000000e+00 
-8.7751061e-02 -4.3402222e-01 0.0000000e+00 
-1.6363780e-01 -4.1783574e-01 0.0000000e+00 
-1.4612302e-01 -5.7750231e-01 0.0000000e+00 
-2.2693884e-01 -5.5331206e-01 0.0000000e+00 
-2.1152635e-01 -7.2093475e-01 0.0000000e+00 
-2.9522407e-01 -6.8964094e-01 0.0000000e+00 
-2.8112307e-01 -8.6190021e-01 0.0000000e+00 
-3.6625850e-01 -8.2459182e-01 0.0000000e+00 
-3.5265744e-01 -9.9903339e-01 0.0000000e+00 
-4.3824521e-01 -9.5683426e-01 0.0000000e+00 
-4.2441666e-01 -1.1316167e+00 0.0000000e+00 
-5.0979030e-01 -1.0856072e+00 0.0000000e+00 
-4.9512732e-01 -1.2593138e+00 0.0000000e+00 
-5.8040220e-01 -1.2115383e+00 0.0000000e+00 
REACTION 3 26  float
0.0000000e+00 0.0000000e+00 0.0000000e+00 
0.0000000e+00 0.0000000e+00 0.0000000e+00 
0.0000000e+00 0.0000000e+00 0.0000000e+00 
0.0000000e+00 0.0000000e+00 0.0000000e+00 
0.0000000e+00 0.0000000e+00 0.0000000e+00 
0.0000000e+00 0.0000000e+00 0.0000000e+00 
0.0000000e+00 0.0000000e+00 0.0000000e+00 
0.0000000e+00 0.0000000e+00 0.0000000e+00 
0.0000000e+00 0.0000000e+00 0.0000000e+00 
0.0000000e+00 0.0000000e+00 0.0000000e+00 
0.0000000e+00 0.0000000e+00 0.0000000e+00 
0.0000000e+00 0.0000000e+00 0.0000000e+00 
0.0000000e+00 0.0000000e+00 0.0000000e+00 
0.0000000e+00 0.0000000e+00 0.0000000e+00 
0.0000000e+00 0.0000000e+00 0.0000000e+00 
0.0000000e+00 0.0000000e+00 0.0000000e+00 
0.0000000e+00 0.0000000e+00 0.0000000e+00 
0.0000000e+00 0.0000000e+00 0.0000000e+00 
0.0000000e+00 0.0000000e+00 0.0000000e+00 
0.0000000e+00 0.0000000e+00 0.0000000e+00 
0.0000000e+00 0.0000000e+00 0.0000000e+00 
0.0000000e+00 0.0000000e+00 0.0000000e+00 
0.0000000e+00 0.0000000e+00 0.0000000e+00 
0.0000000e+00 0.0000000e+00 0.0000000e+00 
0.0000000e+00 0.0000000e+00 0.0000000e+00 
0.0000000e+00 0.0000000e+00 0.0000000e+00 
VON_MISES_STRESS 1 26  float
1.5732426e+10
1.5547566e+10
1.5134587e+10
1.4411537e+10
1.3634129e+10
1.2783862e+10
1.2119249e+10
1.1161432e+10
1.0594582e+10
9.5561257e+09
9.0694676e+09
7.9707141e+09
7.5922135e+09
6.4600735e+09
6.1577083e+09
5.0237460e+09
4.8513859e+09
3.7975828e+09
3.6983334e+09
2.7147018e+09
2.6725693e+09
1.7464649e+09
1.7470865e+09
8.8804051e+08
9.1547891e+08
7.1355720e+07
CELL_DATA 24
FIELD FieldData 0
