# vtk DataFile Version 4.0
vtk output
ASCII
DATASET UNSTRUCTURED_GRID
POINTS 26 float
0.0000000e+00 1.0000000e-01 0.0000000e+00 
0.0000000e+00 0.0000000e+00 0.0000000e+00 
1.4766368e-01 1.0000000e-01 0.0000000e+00 
1.4883940e-01 0.0000000e+00 0.0000000e+00 
3.0036214e-01 1.0000000e-01 0.0000000e+00 
3.0422947e-01 0.0000000e+00 0.0000000e+00 
4.6008557e-01 1.0000000e-01 0.0000000e+00 
4.6697357e-01 0.0000000e+00 0.0000000e+00 
6.2771249e-01 1.0000000e-01 0.0000000e+00 
6.3798475e-01 0.0000000e+00 0.0000000e+00 
8.0424988e-01 1.0000000e-01 0.0000000e+00 
8.1830680e-01 0.0000000e+00 0.0000000e+00 
9.9085975e-01 1.0000000e-01 0.0000000e+00 
1.0091403e+00 0.0000000e+00 0.0000000e+00 
1.1816932e+00 1.0000000e-01 0.0000000e+00 
1.1957501e+00 0.0000000e+00 0.0000000e+00 
1.3620152e+00 1.0000000e-01 0.0000000e+00 
1.3722875e+00 0.0000000e+00 0.0000000e+00 
1.5330265e+00 1.0000000e-01 0.0000000e+00 
1.5399145e+00 0.0000000e+00 0.0000000e+00 
1.6957705e+00 1.0000000e-01 0.0000000e+00 
1.6996379e+00 0.0000000e+00 0.0000000e+00 
1.8511606e+00 1.0000000e-01 0.0000000e+00 
1.8523363e+00 0.0000000e+00 0.0000000e+00 
2.0000000e+00 1.0000000e-01 0.0000000e+00 
2.0000000e+00 0.0000000e+00 0.0000000e+00 

CELLS 24 96
3 25 24 23
3 0 1 2
3 1 3 2
3 2 3 4
3 24 22 23
3 23 22 21
3 3 5 4
3 4 5 6
3 22 20 21
3 21 20 19
3 5 7 6
3 6 7 8
3 20 18 19
3 19 18 17
3 7 9 8
3 8 9 10
3 18 16 17
3 17 16 15
3 9 11 10
3 10 11 12
3 16 14 15
3 15 14 13
3 11 13 12
3 12 13 14

CELL_TYPES 24
5
5
5
5
5
5
5
5
5
5
5
5
5
5
5
5
5
5
5
5
5
5
5
5
POINT_DATA 26
FIELD FieldData 3
DISPLACEMENT 3 26  float
0.0000000e+00 0.0000000e+00 0.0000000e+00 
0.0000000e+00 0.0000000e+00 0.0000000e+00 
6.1877812e-03 -1.2297354e-02 0.0000000e+00 
-8.8801123e-03 -1.1179496e-02 0.0000000e+00 
8.5359644e-03 -4.7795385e-02 0.0000000e+00 
-2.0486625e-02 -4.4560328e-02 0.0000000e+00 
3.8867225e-03 -1.0635426e-01 0.0000000e+00 
-3.7871167e-02 -1.0028616e-01 0.0000000e+00 
-1.0532490e-02 -1.8733273e-01 0.0000000e+00 
-6.3780487e-02 -1.7821211e-01 0.0000000e+00 
-3.7007779e-02 -2.8990576e-01 0.0000000e+00 
-1.0053960e-01 -2.7798265e-01 0.0000000e+00 
-7.7271827e-02 -4.1316971e-01 0.0000000e+00 
-1.4993298e-01 -3.9911556e-01 0.0000000e+00 
-1.3020444e-01 -5.5116123e-01 0.0000000e+00 
-2.0787999e-01 -5.2963167e-01 0.0000000e+00 
-1.8980043e-01 -6.8953979e-01 0.0000000e+00 
-2.7050343e-01 -6.6132146e-01 0.0000000e+00 
-2.5343350e-01 -8.2585919e-01 0.0000000e+00 
-3.3573475e-01 -7.9194373e-01 0.0000000e+00 
-3.1898776e-01 -9.5869166e-01 0.0000000e+00 
-4.0189078e-01 -9.2012531e-01 0.0000000e+00 
-3.8483924e-01 -1.0872493e+00 0.0000000e+00 
-4.6765307e-01 -1.0450517e+00 0.0000000e+00 
-4.4977090e-01 -1.2111295e+00 0.0000000e+00 
-5.3252125e-01 -1.1672649e+00 0.0000000e+00 
REACTION 3 26  float
0.0000000e+00 0.0000000e+00 0.0000000e+00 
0.0000000e+00 0.0000000e+00 0.0000000e+00 
0.0000000e+00 0.0000000e+00 0.0000000e+00 
0.0000000e+00 0.0000000e+00 0.0000000e+00 
0.0000000e+00 0.0000000e+00 0.0000000e+00 
0.0000000e+00 0.0000000e+00 0.0000000e+00 
0.0000000e+00 0.0000000e+00 0.0000000e+00 
0.0000000e+00 0.0000000e+00 0.0000000e+00 
0.0000000e+00 0.0000000e+00 0.0000000e+00 
0.0000000e+00 0.0000000e+00 0.0000000e+00 
0.0000000e+00 0.0000000e+00 0.0000000e+00 
0.0000000e+00 0.0000000e+00 0.0000000e+00 
0.0000000e+00 0.0000000e+00 0.0000000e+00 
0.0000000e+00 0.0000000e+00 0.0000000e+00 
0.0000000e+00 0.0000000e+00 0.0000000e+00 
0.0000000e+00 0.0000000e+00 0.0000000e+00 
0.0000000e+00 0.0000000e+00 0.0000000e+00 
0.0000000e+00 0.0000000e+00 0.0000000e+00 
0.0000000e+00 0.0000000e+00 0.0000000e+00 
0.0000000e+00 0.0000000e+00 0.0000000e+00 
0.0000000e+00 0.0000000e+00 0.0000000e+00 
0.0000000e+00 0.0000000e+00 0.0000000e+00 
0.0000000e+00 0.0000000e+00 0.0000000e+00 
0.0000000e+00 0.0000000e+00 0.0000000e+00 
0.0000000e+00 0.0000000e+00 0.0000000e+00 
0.0000000e+00 0.0000000e+00 0.0000000e+00 
VON_MISES_STRESS 1 26  float
1.4848871e+10
1.4665272e+10
1.4289022e+10
1.3623051e+10
1.2915290e+10
1.2138199e+10
1.1524777e+10
1.0647004e+10
1.0115006e+10
9.1581368e+09
8.6923346e+09
7.6727178e+09
7.3014712e+09
6.2418355e+09
5.9362294e+09
4.8683008e+09
4.6825364e+09
3.6859482e+09
3.5672453e+09
2.6343969e+09
2.5688064e+09
1.6895980e+09
1.6643520e+09
8.5972486e+08
8.7811322e+08
1.0685157e+08
CELL_DATA 24
FIELD FieldData 0
