# vtk DataFile Version 4.0
vtk output
ASCII
DATASET UNSTRUCTURED_GRID
POINTS 26 float
0.0000000e+00 1.0000000e-01 0.0000000e+00 
0.0000000e+00 0.0000000e+00 0.0000000e+00 
1.4766368e-01 1.0000000e-01 0.0000000e+00 
1.4883940e-01 0.0000000e+00 0.0000000e+00 
3.0036214e-01 1.0000000e-01 0.0000000e+00 
3.0422947e-01 0.0000000e+00 0.0000000e+00 
4.6008557e-01 1.0000000e-01 0.0000000e+00 
4.6697357e-01 0.0000000e+00 0.0000000e+00 
6.2771249e-01 1.0000000e-01 0.0000000e+00 
6.3798475e-01 0.0000000e+00 0.0000000e+00 
8.0424988e-01 1.0000000e-01 0.0000000e+00 
8.1830680e-01 0.0000000e+00 0.0000000e+00 
9.9085975e-01 1.0000000e-01 0.0000000e+00 
1.0091403e+00 0.0000000e+00 0.0000000e+00 
1.1816932e+00 1.0000000e-01 0.0000000e+00 
1.1957501e+00 0.0000000e+00 0.0000000e+00 
1.3620152e+00 1.0000000e-01 0.0000000e+00 
1.3722875e+00 0.0000000e+00 0.0000000e+00 
1.5330265e+00 1.0000000e-01 0.0000000e+00 
1.5399145e+00 0.0000000e+00 0.0000000e+00 
1.6957705e+00 1.0000000e-01 0.0000000e+00 
1.6996379e+00 0.0000000e+00 0.0000000e+00 
1.8511606e+00 1.0000000e-01 0.0000000e+00 
1.8523363e+00 0.0000000e+00 0.0000000e+00 
2.0000000e+00 1.0000000e-01 0.0000000e+00 
2.0000000e+00 0.0000000e+00 0.0000000e+00 

CELLS 24 96
3 25 24 23
3 0 1 2
3 1 3 2
3 2 3 4
3 24 22 23
3 23 22 21
3 3 5 4
3 4 5 6
3 22 20 21
3 21 20 19
3 5 7 6
3 6 7 8
3 20 18 19
3 19 18 17
3 7 9 8
3 8 9 10
3 18 16 17
3 17 16 15
3 9 11 10
3 10 11 12
3 16 14 15
3 15 14 13
3 11 13 12
3 12 13 14

CELL_TYPES 24
5
5
5
5
5
5
5
5
5
5
5
5
5
5
5
5
5
5
5
5
5
5
5
5
POINT_DATA 26
FIELD FieldData 3
DISPLACEMENT 3 26  float
0.0000000e+00 0.0000000e+00 0.0000000e+00 
0.0000000e+00 0.0000000e+00 0.0000000e+00 
1.5641447e-03 -2.6085686e-03 0.0000000e+00 
-1.7259902e-03 -2.6073568e-03 0.0000000e+00 
2.8725455e-03 -1.0217141e-02 0.0000000e+00 
-3.5547651e-03 -1.0278081e-02 0.0000000e+00 
3.7927851e-03 -2.3066819e-02 0.0000000e+00 
-5.6419075e-03 -2.3295112e-02 0.0000000e+00 
4.1502966e-03 -4.1408308e-02 0.0000000e+00 
-8.1365267e-03 -4.1942883e-02 0.0000000e+00 
3.7724059e-03 -6.5480426e-02 0.0000000e+00 
-1.1175584e-02 -6.6492870e-02 0.0000000e+00 
2.4980961e-03 -9.5484614e-02 0.0000000e+00 
-1.4869266e-02 -9.7170450e-02 0.0000000e+00 
3.4406764e-04 -1.3023524e-01 0.0000000e+00 
-1.8916797e-02 -1.3111386e-01 0.0000000e+00 
-2.4708901e-03 -1.6613580e-01 0.0000000e+00 
-2.3145029e-02 -1.6615276e-01 0.0000000e+00 
-5.7667247e-03 -2.0233241e-01 0.0000000e+00 
-2.7436253e-02 -2.0150337e-01 0.0000000e+00 
-9.3778903e-03 -2.3819675e-01 0.0000000e+00 
-3.1686340e-02 -2.3658639e-01 0.0000000e+00 
-1.3164301e-02 -2.7327716e-01 0.0000000e+00 
-3.5808649e-02 -2.7097949e-01 0.0000000e+00 
-1.7014692e-02 -3.0725592e-01 0.0000000e+00 
-3.9745029e-02 -3.0463165e-01 0.0000000e+00 
REACTION 3 26  float
0.0000000e+00 0.0000000e+00 0.0000000e+00 
0.0000000e+00 0.0000000e+00 0.0000000e+00 
0.0000000e+00 0.0000000e+00 0.0000000e+00 
0.0000000e+00 0.0000000e+00 0.0000000e+00 
0.0000000e+00 0.0000000e+00 0.0000000e+00 
0.0000000e+00 0.0000000e+00 0.0000000e+00 
0.0000000e+00 0.0000000e+00 0.0000000e+00 
0.0000000e+00 0.0000000e+00 0.0000000e+00 
0.0000000e+00 0.0000000e+00 0.0000000e+00 
0.0000000e+00 0.0000000e+00 0.0000000e+00 
0.0000000e+00 0.0000000e+00 0.0000000e+00 
0.0000000e+00 0.0000000e+00 0.0000000e+00 
0.0000000e+00 0.0000000e+00 0.0000000e+00 
0.0000000e+00 0.0000000e+00 0.0000000e+00 
0.0000000e+00 0.0000000e+00 0.0000000e+00 
0.0000000e+00 0.0000000e+00 0.0000000e+00 
0.0000000e+00 0.0000000e+00 0.0000000e+00 
0.0000000e+00 0.0000000e+00 0.0000000e+00 
0.0000000e+00 0.0000000e+00 0.0000000e+00 
0.0000000e+00 0.0000000e+00 0.0000000e+00 
0.0000000e+00 0.0000000e+00 0.0000000e+00 
0.0000000e+00 0.0000000e+00 0.0000000e+00 
0.0000000e+00 0.0000000e+00 0.0000000e+00 
0.0000000e+00 0.0000000e+00 0.0000000e+00 
0.0000000e+00 0.0000000e+00 0.0000000e+00 
0.0000000e+00 0.0000000e+00 0.0000000e+00 
VON_MISES_STRESS 1 26  float
3.2789678e+09
3.1813148e+09
3.1299244e+09
2.9851313e+09
2.8916493e+09
2.7460564e+09
2.6495076e+09
2.4908895e+09
2.3897290e+09
2.2163689e+09
2.1086001e+09
1.9182075e+09
1.8128426e+09
1.6034071e+09
1.4970870e+09
1.2775909e+09
1.1884590e+09
9.7892038e+08
8.9816365e+08
7.0036576e+08
6.2818605e+08
4.4534118e+08
3.8337194e+08
2.3595624e+08
2.1870293e+08
1.1619857e+08
CELL_DATA 24
FIELD FieldData 0
