# vtk DataFile Version 4.0
vtk output
ASCII
DATASET UNSTRUCTURED_GRID
POINTS 26 float
0.0000000e+00 1.0000000e-01 0.0000000e+00 
0.0000000e+00 0.0000000e+00 0.0000000e+00 
1.4766368e-01 1.0000000e-01 0.0000000e+00 
1.4883940e-01 0.0000000e+00 0.0000000e+00 
3.0036214e-01 1.0000000e-01 0.0000000e+00 
3.0422947e-01 0.0000000e+00 0.0000000e+00 
4.6008557e-01 1.0000000e-01 0.0000000e+00 
4.6697357e-01 0.0000000e+00 0.0000000e+00 
6.2771249e-01 1.0000000e-01 0.0000000e+00 
6.3798475e-01 0.0000000e+00 0.0000000e+00 
8.0424988e-01 1.0000000e-01 0.0000000e+00 
8.1830680e-01 0.0000000e+00 0.0000000e+00 
9.9085975e-01 1.0000000e-01 0.0000000e+00 
1.0091403e+00 0.0000000e+00 0.0000000e+00 
1.1816932e+00 1.0000000e-01 0.0000000e+00 
1.1957501e+00 0.0000000e+00 0.0000000e+00 
1.3620152e+00 1.0000000e-01 0.0000000e+00 
1.3722875e+00 0.0000000e+00 0.0000000e+00 
1.5330265e+00 1.0000000e-01 0.0000000e+00 
1.5399145e+00 0.0000000e+00 0.0000000e+00 
1.6957705e+00 1.0000000e-01 0.0000000e+00 
1.6996379e+00 0.0000000e+00 0.0000000e+00 
1.8511606e+00 1.0000000e-01 0.0000000e+00 
1.8523363e+00 0.0000000e+00 0.0000000e+00 
2.0000000e+00 1.0000000e-01 0.0000000e+00 
2.0000000e+00 0.0000000e+00 0.0000000e+00 

CELLS 24 96
3 25 24 23
3 0 1 2
3 1 3 2
3 2 3 4
3 24 22 23
3 23 22 21
3 3 5 4
3 4 5 6
3 22 20 21
3 21 20 19
3 5 7 6
3 6 7 8
3 20 18 19
3 19 18 17
3 7 9 8
3 8 9 10
3 18 16 17
3 17 16 15
3 9 11 10
3 10 11 12
3 16 14 15
3 15 14 13
3 11 13 12
3 12 13 14

CELL_TYPES 24
5
5
5
5
5
5
5
5
5
5
5
5
5
5
5
5
5
5
5
5
5
5
5
5
POINT_DATA 26
FIELD FieldData 3
DISPLACEMENT 3 26  float
0.0000000e+00 0.0000000e+00 0.0000000e+00 
0.0000000e+00 0.0000000e+00 0.0000000e+00 
5.5174502e-03 -1.0606273e-02 0.0000000e+00 
-7.5666788e-03 -9.7953398e-03 0.0000000e+00 
8.1064431e-03 -4.1355867e-02 0.0000000e+00 
-1.7213561e-02 -3.9042290e-02 0.0000000e+00 
5.3460402e-03 -9.2429355e-02 0.0000000e+00 
-3.1306829e-02 -8.8124126e-02 0.0000000e+00 
-4.9985433e-03 -1.6364507e-01 0.0000000e+00 
-5.2037451e-02 -1.5722324e-01 0.0000000e+00 
-2.4855545e-02 -2.5465366e-01 0.0000000e+00 
-8.1323415e-02 -2.4634999e-01 0.0000000e+00 
-5.5763565e-02 -3.6498389e-01 0.0000000e+00 
-1.2068989e-01 -3.5536864e-01 0.0000000e+00 
-9.6998163e-02 -4.8948845e-01 0.0000000e+00 
-1.6697207e-01 -4.7363141e-01 0.0000000e+00 
-1.4393695e-01 -6.1518556e-01 0.0000000e+00 
-2.1714337e-01 -5.9363598e-01 0.0000000e+00 
-1.9444378e-01 -7.3964834e-01 0.0000000e+00 
-2.6952216e-01 -7.1317905e-01 0.0000000e+00 
-2.4674843e-01 -8.6136729e-01 0.0000000e+00 
-3.2270646e-01 -8.3083862e-01 0.0000000e+00 
-2.9946148e-01 -9.7943693e-01 0.0000000e+00 
-3.7557632e-01 -9.4571495e-01 0.0000000e+00 
-3.5152528e-01 -1.0933341e+00 0.0000000e+00 
-4.2764762e-01 -1.0581688e+00 0.0000000e+00 
REACTION 3 26  float
0.0000000e+00 0.0000000e+00 0.0000000e+00 
0.0000000e+00 0.0000000e+00 0.0000000e+00 
0.0000000e+00 0.0000000e+00 0.0000000e+00 
0.0000000e+00 0.0000000e+00 0.0000000e+00 
0.0000000e+00 0.0000000e+00 0.0000000e+00 
0.0000000e+00 0.0000000e+00 0.0000000e+00 
0.0000000e+00 0.0000000e+00 0.0000000e+00 
0.0000000e+00 0.0000000e+00 0.0000000e+00 
0.0000000e+00 0.0000000e+00 0.0000000e+00 
0.0000000e+00 0.0000000e+00 0.0000000e+00 
0.0000000e+00 0.0000000e+00 0.0000000e+00 
0.0000000e+00 0.0000000e+00 0.0000000e+00 
0.0000000e+00 0.0000000e+00 0.0000000e+00 
0.0000000e+00 0.0000000e+00 0.0000000e+00 
0.0000000e+00 0.0000000e+00 0.0000000e+00 
0.0000000e+00 0.0000000e+00 0.0000000e+00 
0.0000000e+00 0.0000000e+00 0.0000000e+00 
0.0000000e+00 0.0000000e+00 0.0000000e+00 
0.0000000e+00 0.0000000e+00 0.0000000e+00 
0.0000000e+00 0.0000000e+00 0.0000000e+00 
0.0000000e+00 0.0000000e+00 0.0000000e+00 
0.0000000e+00 0.0000000e+00 0.0000000e+00 
0.0000000e+00 0.0000000e+00 0.0000000e+00 
0.0000000e+00 0.0000000e+00 0.0000000e+00 
0.0000000e+00 0.0000000e+00 0.0000000e+00 
0.0000000e+00 0.0000000e+00 0.0000000e+00 
VON_MISES_STRESS 1 26  float
1.2902433e+10
1.2720467e+10
1.2418366e+10
1.1863778e+10
1.1297126e+10
1.0663038e+10
1.0157309e+10
9.4387620e+09
8.9845187e+09
8.1935949e+09
7.7795430e+09
6.9251246e+09
6.5790525e+09
5.6755753e+09
5.3746432e+09
4.4526664e+09
4.2499077e+09
3.3823695e+09
3.2338004e+09
2.4174828e+09
2.3132454e+09
1.5433471e+09
1.4741663e+09
7.8798931e+08
7.8882131e+08
1.6601714e+08
CELL_DATA 24
FIELD FieldData 0
