# vtk DataFile Version 4.0
vtk output
ASCII
DATASET UNSTRUCTURED_GRID
POINTS 26 float
0.0000000e+00 1.0000000e-01 0.0000000e+00 
0.0000000e+00 0.0000000e+00 0.0000000e+00 
1.4766368e-01 1.0000000e-01 0.0000000e+00 
1.4883940e-01 0.0000000e+00 0.0000000e+00 
3.0036214e-01 1.0000000e-01 0.0000000e+00 
3.0422947e-01 0.0000000e+00 0.0000000e+00 
4.6008557e-01 1.0000000e-01 0.0000000e+00 
4.6697357e-01 0.0000000e+00 0.0000000e+00 
6.2771249e-01 1.0000000e-01 0.0000000e+00 
6.3798475e-01 0.0000000e+00 0.0000000e+00 
8.0424988e-01 1.0000000e-01 0.0000000e+00 
8.1830680e-01 0.0000000e+00 0.0000000e+00 
9.9085975e-01 1.0000000e-01 0.0000000e+00 
1.0091403e+00 0.0000000e+00 0.0000000e+00 
1.1816932e+00 1.0000000e-01 0.0000000e+00 
1.1957501e+00 0.0000000e+00 0.0000000e+00 
1.3620152e+00 1.0000000e-01 0.0000000e+00 
1.3722875e+00 0.0000000e+00 0.0000000e+00 
1.5330265e+00 1.0000000e-01 0.0000000e+00 
1.5399145e+00 0.0000000e+00 0.0000000e+00 
1.6957705e+00 1.0000000e-01 0.0000000e+00 
1.6996379e+00 0.0000000e+00 0.0000000e+00 
1.8511606e+00 1.0000000e-01 0.0000000e+00 
1.8523363e+00 0.0000000e+00 0.0000000e+00 
2.0000000e+00 1.0000000e-01 0.0000000e+00 
2.0000000e+00 0.0000000e+00 0.0000000e+00 

CELLS 24 96
3 25 24 23
3 0 1 2
3 1 3 2
3 2 3 4
3 24 22 23
3 23 22 21
3 3 5 4
3 4 5 6
3 22 20 21
3 21 20 19
3 5 7 6
3 6 7 8
3 20 18 19
3 19 18 17
3 7 9 8
3 8 9 10
3 18 16 17
3 17 16 15
3 9 11 10
3 10 11 12
3 16 14 15
3 15 14 13
3 11 13 12
3 12 13 14

CELL_TYPES 24
5
5
5
5
5
5
5
5
5
5
5
5
5
5
5
5
5
5
5
5
5
5
5
5
POINT_DATA 26
FIELD FieldData 3
DISPLACEMENT 3 26  float
0.0000000e+00 0.0000000e+00 0.0000000e+00 
0.0000000e+00 0.0000000e+00 0.0000000e+00 
7.0561566e-03 -1.4742959e-02 0.0000000e+00 
-1.0812447e-02 -1.3112200e-02 0.0000000e+00 
8.7677212e-03 -5.6959115e-02 0.0000000e+00 
-2.5365133e-02 -5.2195944e-02 0.0000000e+00 
8.5501140e-04 -1.2579268e-01 0.0000000e+00 
-4.7750082e-02 -1.1685483e-01 0.0000000e+00 
-2.0147575e-02 -2.1970014e-01 0.0000000e+00 
-8.1468776e-02 -2.0627870e-01 0.0000000e+00 
-5.6876693e-02 -3.3700007e-01 0.0000000e+00 
-1.2931168e-01 -3.1942847e-01 0.0000000e+00 
-1.1115061e-01 -4.7607946e-01 0.0000000e+00 
-1.9328387e-01 -4.5522532e-01 0.0000000e+00 
-1.8111305e-01 -6.2992233e-01 0.0000000e+00 
-2.6786974e-01 -6.0003549e-01 0.0000000e+00 
-2.5872070e-01 -7.8269076e-01 0.0000000e+00 
-3.4796435e-01 -7.4491650e-01 0.0000000e+00 
-3.4072384e-01 -9.3208885e-01 0.0000000e+00 
-4.3100986e-01 -8.8771152e-01 0.0000000e+00 
-4.2461506e-01 -1.0769262e+00 0.0000000e+00 
-5.1500446e-01 -1.0272154e+00 0.0000000e+00 
-5.0853676e-01 -1.2166600e+00 0.0000000e+00 
-5.9843051e-01 -1.1628019e+00 0.0000000e+00 
-5.9113240e-01 -1.3511093e+00 0.0000000e+00 
-6.8084967e-01 -1.2952801e+00 0.0000000e+00 
REACTION 3 26  float
0.0000000e+00 0.0000000e+00 0.0000000e+00 
0.0000000e+00 0.0000000e+00 0.0000000e+00 
0.0000000e+00 0.0000000e+00 0.0000000e+00 
0.0000000e+00 0.0000000e+00 0.0000000e+00 
0.0000000e+00 0.0000000e+00 0.0000000e+00 
0.0000000e+00 0.0000000e+00 0.0000000e+00 
0.0000000e+00 0.0000000e+00 0.0000000e+00 
0.0000000e+00 0.0000000e+00 0.0000000e+00 
0.0000000e+00 0.0000000e+00 0.0000000e+00 
0.0000000e+00 0.0000000e+00 0.0000000e+00 
0.0000000e+00 0.0000000e+00 0.0000000e+00 
0.0000000e+00 0.0000000e+00 0.0000000e+00 
0.0000000e+00 0.0000000e+00 0.0000000e+00 
0.0000000e+00 0.0000000e+00 0.0000000e+00 
0.0000000e+00 0.0000000e+00 0.0000000e+00 
0.0000000e+00 0.0000000e+00 0.0000000e+00 
0.0000000e+00 0.0000000e+00 0.0000000e+00 
0.0000000e+00 0.0000000e+00 0.0000000e+00 
0.0000000e+00 0.0000000e+00 0.0000000e+00 
0.0000000e+00 0.0000000e+00 0.0000000e+00 
0.0000000e+00 0.0000000e+00 0.0000000e+00 
0.0000000e+00 0.0000000e+00 0.0000000e+00 
0.0000000e+00 0.0000000e+00 0.0000000e+00 
0.0000000e+00 0.0000000e+00 0.0000000e+00 
0.0000000e+00 0.0000000e+00 0.0000000e+00 
0.0000000e+00 0.0000000e+00 0.0000000e+00 
VON_MISES_STRESS 1 26  float
1.7609556e+10
1.7419276e+10
1.6921590e+10
1.6061182e+10
1.5124128e+10
1.4098978e+10
1.3321753e+10
1.2176335e+10
1.1537777e+10
1.0312435e+10
9.7884488e+09
8.5130552e+09
8.1291264e+09
6.8400364e+09
6.5567078e+09
5.2834212e+09
5.1520184e+09
3.9799892e+09
3.9347228e+09
2.8482138e+09
2.8684157e+09
1.8497286e+09
1.9176256e+09
9.5585152e+08
1.0108993e+09
2.2050662e+07
CELL_DATA 24
FIELD FieldData 0
