# vtk DataFile Version 4.0
vtk output
ASCII
DATASET UNSTRUCTURED_GRID
POINTS 26 float
0.0000000e+00 1.0000000e-01 0.0000000e+00 
0.0000000e+00 0.0000000e+00 0.0000000e+00 
1.4766368e-01 1.0000000e-01 0.0000000e+00 
1.4883940e-01 0.0000000e+00 0.0000000e+00 
3.0036214e-01 1.0000000e-01 0.0000000e+00 
3.0422947e-01 0.0000000e+00 0.0000000e+00 
4.6008557e-01 1.0000000e-01 0.0000000e+00 
4.6697357e-01 0.0000000e+00 0.0000000e+00 
6.2771249e-01 1.0000000e-01 0.0000000e+00 
6.3798475e-01 0.0000000e+00 0.0000000e+00 
8.0424988e-01 1.0000000e-01 0.0000000e+00 
8.1830680e-01 0.0000000e+00 0.0000000e+00 
9.9085975e-01 1.0000000e-01 0.0000000e+00 
1.0091403e+00 0.0000000e+00 0.0000000e+00 
1.1816932e+00 1.0000000e-01 0.0000000e+00 
1.1957501e+00 0.0000000e+00 0.0000000e+00 
1.3620152e+00 1.0000000e-01 0.0000000e+00 
1.3722875e+00 0.0000000e+00 0.0000000e+00 
1.5330265e+00 1.0000000e-01 0.0000000e+00 
1.5399145e+00 0.0000000e+00 0.0000000e+00 
1.6957705e+00 1.0000000e-01 0.0000000e+00 
1.6996379e+00 0.0000000e+00 0.0000000e+00 
1.8511606e+00 1.0000000e-01 0.0000000e+00 
1.8523363e+00 0.0000000e+00 0.0000000e+00 
2.0000000e+00 1.0000000e-01 0.0000000e+00 
2.0000000e+00 0.0000000e+00 0.0000000e+00 

CELLS 24 96
3 25 24 23
3 0 1 2
3 1 3 2
3 2 3 4
3 24 22 23
3 23 22 21
3 3 5 4
3 4 5 6
3 22 20 21
3 21 20 19
3 5 7 6
3 6 7 8
3 20 18 19
3 19 18 17
3 7 9 8
3 8 9 10
3 18 16 17
3 17 16 15
3 9 11 10
3 10 11 12
3 16 14 15
3 15 14 13
3 11 13 12
3 12 13 14

CELL_TYPES 24
5
5
5
5
5
5
5
5
5
5
5
5
5
5
5
5
5
5
5
5
5
5
5
5
POINT_DATA 26
FIELD FieldData 3
DISPLACEMENT 3 26  float
0.0000000e+00 0.0000000e+00 0.0000000e+00 
0.0000000e+00 0.0000000e+00 0.0000000e+00 
8.7519427e-04 -1.4324109e-03 0.0000000e+00 
-9.3479309e-04 -1.4489295e-03 0.0000000e+00 
1.6474247e-03 -5.6058769e-03 0.0000000e+00 
-1.8868975e-03 -5.6938268e-03 0.0000000e+00 
2.2858293e-03 -1.2655465e-02 0.0000000e+00 
-2.9011031e-03 -1.2893911e-02 0.0000000e+00 
2.7337561e-03 -2.2727506e-02 0.0000000e+00 
-4.0183635e-03 -2.3210270e-02 0.0000000e+00 
2.9336903e-03 -3.5963506e-02 0.0000000e+00 
-5.2744471e-03 -3.6797557e-02 0.0000000e+00 
2.8302169e-03 -5.2485220e-02 0.0000000e+00 
-6.6947346e-03 -5.3784478e-02 0.0000000e+00 
2.4283445e-03 -7.1646065e-02 0.0000000e+00 
-8.1561282e-03 -7.2587326e-02 0.0000000e+00 
1.7640956e-03 -9.1466933e-02 0.0000000e+00 
-9.6198339e-03 -9.2004977e-02 0.0000000e+00 
8.9907186e-04 -1.1147259e-01 0.0000000e+00 
-1.1055387e-02 -1.1159895e-01 0.0000000e+00 
-1.0909820e-04 -1.3131033e-01 0.0000000e+00 
-1.2436236e-02 -1.3104358e-01 0.0000000e+00 
-1.2112112e-03 -1.5072449e-01 0.0000000e+00 
-1.3740705e-02 -1.5010050e-01 0.0000000e+00 
-2.3682360e-03 -1.6953400e-01 0.0000000e+00 
-1.4950631e-02 -1.6873540e-01 0.0000000e+00 
REACTION 3 26  float
0.0000000e+00 0.0000000e+00 0.0000000e+00 
0.0000000e+00 0.0000000e+00 0.0000000e+00 
0.0000000e+00 0.0000000e+00 0.0000000e+00 
0.0000000e+00 0.0000000e+00 0.0000000e+00 
0.0000000e+00 0.0000000e+00 0.0000000e+00 
0.0000000e+00 0.0000000e+00 0.0000000e+00 
0.0000000e+00 0.0000000e+00 0.0000000e+00 
0.0000000e+00 0.0000000e+00 0.0000000e+00 
0.0000000e+00 0.0000000e+00 0.0000000e+00 
0.0000000e+00 0.0000000e+00 0.0000000e+00 
0.0000000e+00 0.0000000e+00 0.0000000e+00 
0.0000000e+00 0.0000000e+00 0.0000000e+00 
0.0000000e+00 0.0000000e+00 0.0000000e+00 
0.0000000e+00 0.0000000e+00 0.0000000e+00 
0.0000000e+00 0.0000000e+00 0.0000000e+00 
0.0000000e+00 0.0000000e+00 0.0000000e+00 
0.0000000e+00 0.0000000e+00 0.0000000e+00 
0.0000000e+00 0.0000000e+00 0.0000000e+00 
0.0000000e+00 0.0000000e+00 0.0000000e+00 
0.0000000e+00 0.0000000e+00 0.0000000e+00 
0.0000000e+00 0.0000000e+00 0.0000000e+00 
0.0000000e+00 0.0000000e+00 0.0000000e+00 
0.0000000e+00 0.0000000e+00 0.0000000e+00 
0.0000000e+00 0.0000000e+00 0.0000000e+00 
0.0000000e+00 0.0000000e+00 0.0000000e+00 
0.0000000e+00 0.0000000e+00 0.0000000e+00 
VON_MISES_STRESS 1 26  float
1.8083686e+09
1.7485989e+09
1.7219165e+09
1.6394666e+09
1.5911768e+09
1.5097445e+09
1.4585919e+09
1.3709285e+09
1.3161279e+09
1.2211331e+09
1.1616465e+09
1.0578785e+09
9.9877453e+08
8.8482099e+08
8.2448550e+08
7.0529382e+08
6.5391981e+08
5.4040890e+08
4.9330717e+08
3.8650618e+08
3.4397293e+08
2.4586003e+08
2.0925154e+08
1.3127180e+08
1.2062624e+08
6.8650056e+07
CELL_DATA 24
FIELD FieldData 0
