# vtk DataFile Version 4.0
vtk output
ASCII
DATASET UNSTRUCTURED_GRID
POINTS 26 float
0.0000000e+00 1.0000000e-01 0.0000000e+00 
0.0000000e+00 0.0000000e+00 0.0000000e+00 
1.4766368e-01 1.0000000e-01 0.0000000e+00 
1.4883940e-01 0.0000000e+00 0.0000000e+00 
3.0036214e-01 1.0000000e-01 0.0000000e+00 
3.0422947e-01 0.0000000e+00 0.0000000e+00 
4.6008557e-01 1.0000000e-01 0.0000000e+00 
4.6697357e-01 0.0000000e+00 0.0000000e+00 
6.2771249e-01 1.0000000e-01 0.0000000e+00 
6.3798475e-01 0.0000000e+00 0.0000000e+00 
8.0424988e-01 1.0000000e-01 0.0000000e+00 
8.1830680e-01 0.0000000e+00 0.0000000e+00 
9.9085975e-01 1.0000000e-01 0.0000000e+00 
1.0091403e+00 0.0000000e+00 0.0000000e+00 
1.1816932e+00 1.0000000e-01 0.0000000e+00 
1.1957501e+00 0.0000000e+00 0.0000000e+00 
1.3620152e+00 1.0000000e-01 0.0000000e+00 
1.3722875e+00 0.0000000e+00 0.0000000e+00 
1.5330265e+00 1.0000000e-01 0.0000000e+00 
1.5399145e+00 0.0000000e+00 0.0000000e+00 
1.6957705e+00 1.0000000e-01 0.0000000e+00 
1.6996379e+00 0.0000000e+00 0.0000000e+00 
1.8511606e+00 1.0000000e-01 0.0000000e+00 
1.8523363e+00 0.0000000e+00 0.0000000e+00 
2.0000000e+00 1.0000000e-01 0.0000000e+00 
2.0000000e+00 0.0000000e+00 0.0000000e+00 

CELLS 24 96
3 25 24 23
3 0 1 2
3 1 3 2
3 2 3 4
3 24 22 23
3 23 22 21
3 3 5 4
3 4 5 6
3 22 20 21
3 21 20 19
3 5 7 6
3 6 7 8
3 20 18 19
3 19 18 17
3 7 9 8
3 8 9 10
3 18 16 17
3 17 16 15
3 9 11 10
3 10 11 12
3 16 14 15
3 15 14 13
3 11 13 12
3 12 13 14

CELL_TYPES 24
5
5
5
5
5
5
5
5
5
5
5
5
5
5
5
5
5
5
5
5
5
5
5
5
POINT_DATA 26
FIELD FieldData 3
DISPLACEMENT 3 26  float
0.0000000e+00 0.0000000e+00 0.0000000e+00 
0.0000000e+00 0.0000000e+00 0.0000000e+00 
2.9126457e-03 -5.0601824e-03 0.0000000e+00 
-3.4377822e-03 -4.9341419e-03 0.0000000e+00 
5.0509628e-03 -1.9829441e-02 0.0000000e+00 
-7.3471116e-03 -1.9553518e-02 0.0000000e+00 
5.8565233e-03 -4.4716224e-02 0.0000000e+00 
-1.2315994e-02 -4.4342015e-02 0.0000000e+00 
4.7175903e-03 -8.0093883e-02 0.0000000e+00 
-1.8916404e-02 -7.9766504e-02 0.0000000e+00 
1.0491614e-03 -1.2629330e-01 0.0000000e+00 
-2.7680414e-02 -1.2625483e-01 0.0000000e+00 
-5.6727133e-03 -1.8356660e-01 0.0000000e+00 
-3.9054193e-02 -1.8414727e-01 0.0000000e+00 
-1.5365135e-02 -2.4956279e-01 0.0000000e+00 
-5.2155282e-02 -2.4800098e-01 0.0000000e+00 
-2.6996627e-02 -3.1742176e-01 0.0000000e+00 
-6.6254199e-02 -3.1372851e-01 0.0000000e+00 
-3.9960098e-02 -3.8558191e-01 0.0000000e+00 
-8.0893613e-02 -3.7991011e-01 0.0000000e+00 
-5.3712230e-02 -4.5292920e-01 0.0000000e+00 
-9.5670544e-02 -4.4551992e-01 0.0000000e+00 
-6.7801237e-02 -5.1868653e-01 0.0000000e+00 
-1.1024953e-01 -5.0982553e-01 0.0000000e+00 
-8.1870481e-02 -5.8232182e-01 0.0000000e+00 
-1.2443754e-01 -5.7279819e-01 0.0000000e+00 
REACTION 3 26  float
0.0000000e+00 0.0000000e+00 0.0000000e+00 
0.0000000e+00 0.0000000e+00 0.0000000e+00 
0.0000000e+00 0.0000000e+00 0.0000000e+00 
0.0000000e+00 0.0000000e+00 0.0000000e+00 
0.0000000e+00 0.0000000e+00 0.0000000e+00 
0.0000000e+00 0.0000000e+00 0.0000000e+00 
0.0000000e+00 0.0000000e+00 0.0000000e+00 
0.0000000e+00 0.0000000e+00 0.0000000e+00 
0.0000000e+00 0.0000000e+00 0.0000000e+00 
0.0000000e+00 0.0000000e+00 0.0000000e+00 
0.0000000e+00 0.0000000e+00 0.0000000e+00 
0.0000000e+00 0.0000000e+00 0.0000000e+00 
0.0000000e+00 0.0000000e+00 0.0000000e+00 
0.0000000e+00 0.0000000e+00 0.0000000e+00 
0.0000000e+00 0.0000000e+00 0.0000000e+00 
0.0000000e+00 0.0000000e+00 0.0000000e+00 
0.0000000e+00 0.0000000e+00 0.0000000e+00 
0.0000000e+00 0.0000000e+00 0.0000000e+00 
0.0000000e+00 0.0000000e+00 0.0000000e+00 
0.0000000e+00 0.0000000e+00 0.0000000e+00 
0.0000000e+00 0.0000000e+00 0.0000000e+00 
0.0000000e+00 0.0000000e+00 0.0000000e+00 
0.0000000e+00 0.0000000e+00 0.0000000e+00 
0.0000000e+00 0.0000000e+00 0.0000000e+00 
0.0000000e+00 0.0000000e+00 0.0000000e+00 
0.0000000e+00 0.0000000e+00 0.0000000e+00 
VON_MISES_STRESS 1 26  float
6.3005445e+09
6.1511107e+09
6.0390799e+09
5.7735997e+09
5.5675274e+09
5.2896261e+09
5.0868603e+09
4.7777121e+09
4.5749053e+09
4.2329334e+09
4.0259013e+09
3.6485563e+09
3.4538460e+09
3.0400097e+09
2.8496415e+09
2.4164232e+09
2.2633795e+09
1.8494323e+09
1.7154483e+09
1.3233454e+09
1.2073294e+09
8.4118643e+08
7.4333338e+08
4.3942806e+08
4.1552339e+08
1.8561634e+08
CELL_DATA 24
FIELD FieldData 0
