# vtk DataFile Version 4.0
vtk output
ASCII
DATASET UNSTRUCTURED_GRID
POINTS 26 float
0.0000000e+00 1.0000000e-01 0.0000000e+00 
0.0000000e+00 0.0000000e+00 0.0000000e+00 
1.4766368e-01 1.0000000e-01 0.0000000e+00 
1.4883940e-01 0.0000000e+00 0.0000000e+00 
3.0036214e-01 1.0000000e-01 0.0000000e+00 
3.0422947e-01 0.0000000e+00 0.0000000e+00 
4.6008557e-01 1.0000000e-01 0.0000000e+00 
4.6697357e-01 0.0000000e+00 0.0000000e+00 
6.2771249e-01 1.0000000e-01 0.0000000e+00 
6.3798475e-01 0.0000000e+00 0.0000000e+00 
8.0424988e-01 1.0000000e-01 0.0000000e+00 
8.1830680e-01 0.0000000e+00 0.0000000e+00 
9.9085975e-01 1.0000000e-01 0.0000000e+00 
1.0091403e+00 0.0000000e+00 0.0000000e+00 
1.1816932e+00 1.0000000e-01 0.0000000e+00 
1.1957501e+00 0.0000000e+00 0.0000000e+00 
1.3620152e+00 1.0000000e-01 0.0000000e+00 
1.3722875e+00 0.0000000e+00 0.0000000e+00 
1.5330265e+00 1.0000000e-01 0.0000000e+00 
1.5399145e+00 0.0000000e+00 0.0000000e+00 
1.6957705e+00 1.0000000e-01 0.0000000e+00 
1.6996379e+00 0.0000000e+00 0.0000000e+00 
1.8511606e+00 1.0000000e-01 0.0000000e+00 
1.8523363e+00 0.0000000e+00 0.0000000e+00 
2.0000000e+00 1.0000000e-01 0.0000000e+00 
2.0000000e+00 0.0000000e+00 0.0000000e+00 

CELLS 24 96
3 25 24 23
3 0 1 2
3 1 3 2
3 2 3 4
3 24 22 23
3 23 22 21
3 3 5 4
3 4 5 6
3 22 20 21
3 21 20 19
3 5 7 6
3 6 7 8
3 20 18 19
3 19 18 17
3 7 9 8
3 8 9 10
3 18 16 17
3 17 16 15
3 9 11 10
3 10 11 12
3 16 14 15
3 15 14 13
3 11 13 12
3 12 13 14

CELL_TYPES 24
5
5
5
5
5
5
5
5
5
5
5
5
5
5
5
5
5
5
5
5
5
5
5
5
POINT_DATA 26
FIELD FieldData 3
DISPLACEMENT 3 26  float
0.0000000e+00 0.0000000e+00 0.0000000e+00 
0.0000000e+00 0.0000000e+00 0.0000000e+00 
2.8002132e-03 -4.8471554e-03 0.0000000e+00 
-3.2859026e-03 -4.7365515e-03 0.0000000e+00 
4.8819049e-03 -1.8995050e-02 0.0000000e+00 
-7.0017315e-03 -1.8763073e-02 0.0000000e+00 
5.7347110e-03 -4.2841885e-02 0.0000000e+00 
-1.1687766e-02 -4.2550273e-02 0.0000000e+00 
4.7942242e-03 -7.6757133e-02 0.0000000e+00 
-1.7869651e-02 -7.6554775e-02 0.0000000e+00 
1.5191316e-03 -1.2107142e-01 0.0000000e+00 
-2.6036590e-02 -1.2119732e-01 0.0000000e+00 
-4.5770155e-03 -1.7604035e-01 0.0000000e+00 
-3.6598537e-02 -1.7681469e-01 0.0000000e+00 
-1.3420355e-02 -2.3941675e-01 0.0000000e+00 
-4.8734609e-02 -2.3818317e-01 0.0000000e+00 
-2.4072211e-02 -3.0461526e-01 0.0000000e+00 
-6.1777439e-02 -3.0137450e-01 0.0000000e+00 
-3.5971276e-02 -3.7012976e-01 0.0000000e+00 
-7.5306565e-02 -3.6501843e-01 0.0000000e+00 
-4.8614010e-02 -4.3488213e-01 0.0000000e+00 
-8.8951088e-02 -4.2812222e-01 0.0000000e+00 
-6.1580990e-02 -4.9811786e-01 0.0000000e+00 
-1.0240205e-01 -4.8997539e-01 0.0000000e+00 
-7.4540839e-02 -5.5931872e-01 0.0000000e+00 
-1.1547991e-01 -5.5054355e-01 0.0000000e+00 
REACTION 3 26  float
0.0000000e+00 0.0000000e+00 0.0000000e+00 
0.0000000e+00 0.0000000e+00 0.0000000e+00 
0.0000000e+00 0.0000000e+00 0.0000000e+00 
0.0000000e+00 0.0000000e+00 0.0000000e+00 
0.0000000e+00 0.0000000e+00 0.0000000e+00 
0.0000000e+00 0.0000000e+00 0.0000000e+00 
0.0000000e+00 0.0000000e+00 0.0000000e+00 
0.0000000e+00 0.0000000e+00 0.0000000e+00 
0.0000000e+00 0.0000000e+00 0.0000000e+00 
0.0000000e+00 0.0000000e+00 0.0000000e+00 
0.0000000e+00 0.0000000e+00 0.0000000e+00 
0.0000000e+00 0.0000000e+00 0.0000000e+00 
0.0000000e+00 0.0000000e+00 0.0000000e+00 
0.0000000e+00 0.0000000e+00 0.0000000e+00 
0.0000000e+00 0.0000000e+00 0.0000000e+00 
0.0000000e+00 0.0000000e+00 0.0000000e+00 
0.0000000e+00 0.0000000e+00 0.0000000e+00 
0.0000000e+00 0.0000000e+00 0.0000000e+00 
0.0000000e+00 0.0000000e+00 0.0000000e+00 
0.0000000e+00 0.0000000e+00 0.0000000e+00 
0.0000000e+00 0.0000000e+00 0.0000000e+00 
0.0000000e+00 0.0000000e+00 0.0000000e+00 
0.0000000e+00 0.0000000e+00 0.0000000e+00 
0.0000000e+00 0.0000000e+00 0.0000000e+00 
0.0000000e+00 0.0000000e+00 0.0000000e+00 
0.0000000e+00 0.0000000e+00 0.0000000e+00 
VON_MISES_STRESS 1 26  float
6.0404157e+09
5.8942213e+09
5.7879834e+09
5.5327319e+09
5.3375002e+09
5.0712653e+09
4.8783944e+09
4.5826847e+09
4.3889935e+09
4.0621197e+09
3.8636244e+09
3.5029586e+09
3.3155932e+09
2.9198077e+09
2.7360407e+09
2.3215642e+09
2.1732012e+09
1.7771108e+09
1.6467560e+09
1.2716152e+09
1.1583516e+09
8.0830419e+08
7.1254490e+08
4.2273072e+08
3.9899405e+08
1.8131376e+08
CELL_DATA 24
FIELD FieldData 0
