# vtk DataFile Version 4.0
vtk output
ASCII
DATASET UNSTRUCTURED_GRID
POINTS 26 float
0.0000000e+00 1.0000000e-01 0.0000000e+00 
0.0000000e+00 0.0000000e+00 0.0000000e+00 
1.4766368e-01 1.0000000e-01 0.0000000e+00 
1.4883940e-01 0.0000000e+00 0.0000000e+00 
3.0036214e-01 1.0000000e-01 0.0000000e+00 
3.0422947e-01 0.0000000e+00 0.0000000e+00 
4.6008557e-01 1.0000000e-01 0.0000000e+00 
4.6697357e-01 0.0000000e+00 0.0000000e+00 
6.2771249e-01 1.0000000e-01 0.0000000e+00 
6.3798475e-01 0.0000000e+00 0.0000000e+00 
8.0424988e-01 1.0000000e-01 0.0000000e+00 
8.1830680e-01 0.0000000e+00 0.0000000e+00 
9.9085975e-01 1.0000000e-01 0.0000000e+00 
1.0091403e+00 0.0000000e+00 0.0000000e+00 
1.1816932e+00 1.0000000e-01 0.0000000e+00 
1.1957501e+00 0.0000000e+00 0.0000000e+00 
1.3620152e+00 1.0000000e-01 0.0000000e+00 
1.3722875e+00 0.0000000e+00 0.0000000e+00 
1.5330265e+00 1.0000000e-01 0.0000000e+00 
1.5399145e+00 0.0000000e+00 0.0000000e+00 
1.6957705e+00 1.0000000e-01 0.0000000e+00 
1.6996379e+00 0.0000000e+00 0.0000000e+00 
1.8511606e+00 1.0000000e-01 0.0000000e+00 
1.8523363e+00 0.0000000e+00 0.0000000e+00 
2.0000000e+00 1.0000000e-01 0.0000000e+00 
2.0000000e+00 0.0000000e+00 0.0000000e+00 

CELLS 24 96
3 25 24 23
3 0 1 2
3 1 3 2
3 2 3 4
3 24 22 23
3 23 22 21
3 3 5 4
3 4 5 6
3 22 20 21
3 21 20 19
3 5 7 6
3 6 7 8
3 20 18 19
3 19 18 17
3 7 9 8
3 8 9 10
3 18 16 17
3 17 16 15
3 9 11 10
3 10 11 12
3 16 14 15
3 15 14 13
3 11 13 12
3 12 13 14

CELL_TYPES 24
5
5
5
5
5
5
5
5
5
5
5
5
5
5
5
5
5
5
5
5
5
5
5
5
POINT_DATA 26
FIELD FieldData 3
DISPLACEMENT 3 26  float
0.0000000e+00 0.0000000e+00 0.0000000e+00 
0.0000000e+00 0.0000000e+00 0.0000000e+00 
3.7400473e-03 -6.6846497e-03 0.0000000e+00 
-4.6139266e-03 -6.4132283e-03 0.0000000e+00 
6.2133977e-03 -2.6180280e-02 0.0000000e+00 
-1.0071476e-02 -2.5481023e-02 0.0000000e+00 
6.4309253e-03 -5.8936208e-02 0.0000000e+00 
-1.7382011e-02 -5.7752628e-02 0.0000000e+00 
3.3710639e-03 -1.0530186e-01 0.0000000e+00 
-2.7521040e-02 -1.0372797e-01 0.0000000e+00 
-3.9198822e-03 -1.6555081e-01 0.0000000e+00 
-4.1387897e-02 -1.6383763e-01 0.0000000e+00 
-1.6273059e-02 -2.3985055e-01 0.0000000e+00 
-5.9734054e-02 -2.3839815e-01 0.0000000e+00 
-3.3506863e-02 -3.2504323e-01 0.0000000e+00 
-8.1140622e-02 -3.2033470e-01 0.0000000e+00 
-5.3754900e-02 -4.1225171e-01 0.0000000e+00 
-1.0432823e-01 -4.0440437e-01 0.0000000e+00 
-7.6016694e-02 -4.9953920e-01 0.0000000e+00 
-1.2852246e-01 -4.8885366e-01 0.0000000e+00 
-9.9414274e-02 -5.8556491e-01 0.0000000e+00 
-1.5304857e-01 -5.7244569e-01 0.0000000e+00 
-1.2322781e-01 -6.6942197e-01 0.0000000e+00 
-1.7734919e-01 -6.5431845e-01 0.0000000e+00 
-1.4689356e-01 -7.5050753e-01 0.0000000e+00 
-2.0112626e-01 -7.3451054e-01 0.0000000e+00 
REACTION 3 26  float
0.0000000e+00 0.0000000e+00 0.0000000e+00 
0.0000000e+00 0.0000000e+00 0.0000000e+00 
0.0000000e+00 0.0000000e+00 0.0000000e+00 
0.0000000e+00 0.0000000e+00 0.0000000e+00 
0.0000000e+00 0.0000000e+00 0.0000000e+00 
0.0000000e+00 0.0000000e+00 0.0000000e+00 
0.0000000e+00 0.0000000e+00 0.0000000e+00 
0.0000000e+00 0.0000000e+00 0.0000000e+00 
0.0000000e+00 0.0000000e+00 0.0000000e+00 
0.0000000e+00 0.0000000e+00 0.0000000e+00 
0.0000000e+00 0.0000000e+00 0.0000000e+00 
0.0000000e+00 0.0000000e+00 0.0000000e+00 
0.0000000e+00 0.0000000e+00 0.0000000e+00 
0.0000000e+00 0.0000000e+00 0.0000000e+00 
0.0000000e+00 0.0000000e+00 0.0000000e+00 
0.0000000e+00 0.0000000e+00 0.0000000e+00 
0.0000000e+00 0.0000000e+00 0.0000000e+00 
0.0000000e+00 0.0000000e+00 0.0000000e+00 
0.0000000e+00 0.0000000e+00 0.0000000e+00 
0.0000000e+00 0.0000000e+00 0.0000000e+00 
0.0000000e+00 0.0000000e+00 0.0000000e+00 
0.0000000e+00 0.0000000e+00 0.0000000e+00 
0.0000000e+00 0.0000000e+00 0.0000000e+00 
0.0000000e+00 0.0000000e+00 0.0000000e+00 
0.0000000e+00 0.0000000e+00 0.0000000e+00 
0.0000000e+00 0.0000000e+00 0.0000000e+00 
VON_MISES_STRESS 1 26  float
8.2685537e+09
8.1007693e+09
7.9410734e+09
7.5973391e+09
7.3015398e+09
6.9316787e+09
6.6491290e+09
6.2335611e+09
5.9595489e+09
5.4983731e+09
5.2271027e+09
4.7191470e+09
4.4715059e+09
3.9181678e+09
3.6824806e+09
3.1058061e+09
2.9231757e+09
2.3733757e+09
2.2186089e+09
1.6978390e+09
1.5681092e+09
1.0795183e+09
9.7288550e+08
5.5938029e+08
5.3690886e+08
2.0671213e+08
CELL_DATA 24
FIELD FieldData 0
