# vtk DataFile Version 4.0
vtk output
ASCII
DATASET UNSTRUCTURED_GRID
POINTS 26 float
0.0000000e+00 1.0000000e-01 0.0000000e+00 
0.0000000e+00 0.0000000e+00 0.0000000e+00 
1.4766368e-01 1.0000000e-01 0.0000000e+00 
1.4883940e-01 0.0000000e+00 0.0000000e+00 
3.0036214e-01 1.0000000e-01 0.0000000e+00 
3.0422947e-01 0.0000000e+00 0.0000000e+00 
4.6008557e-01 1.0000000e-01 0.0000000e+00 
4.6697357e-01 0.0000000e+00 0.0000000e+00 
6.2771249e-01 1.0000000e-01 0.0000000e+00 
6.3798475e-01 0.0000000e+00 0.0000000e+00 
8.0424988e-01 1.0000000e-01 0.0000000e+00 
8.1830680e-01 0.0000000e+00 0.0000000e+00 
9.9085975e-01 1.0000000e-01 0.0000000e+00 
1.0091403e+00 0.0000000e+00 0.0000000e+00 
1.1816932e+00 1.0000000e-01 0.0000000e+00 
1.1957501e+00 0.0000000e+00 0.0000000e+00 
1.3620152e+00 1.0000000e-01 0.0000000e+00 
1.3722875e+00 0.0000000e+00 0.0000000e+00 
1.5330265e+00 1.0000000e-01 0.0000000e+00 
1.5399145e+00 0.0000000e+00 0.0000000e+00 
1.6957705e+00 1.0000000e-01 0.0000000e+00 
1.6996379e+00 0.0000000e+00 0.0000000e+00 
1.8511606e+00 1.0000000e-01 0.0000000e+00 
1.8523363e+00 0.0000000e+00 0.0000000e+00 
2.0000000e+00 1.0000000e-01 0.0000000e+00 
2.0000000e+00 0.0000000e+00 0.0000000e+00 

CELLS 24 96
3 25 24 23
3 0 1 2
3 1 3 2
3 2 3 4
3 24 22 23
3 23 22 21
3 3 5 4
3 4 5 6
3 22 20 21
3 21 20 19
3 5 7 6
3 6 7 8
3 20 18 19
3 19 18 17
3 7 9 8
3 8 9 10
3 18 16 17
3 17 16 15
3 9 11 10
3 10 11 12
3 16 14 15
3 15 14 13
3 11 13 12
3 12 13 14

CELL_TYPES 24
5
5
5
5
5
5
5
5
5
5
5
5
5
5
5
5
5
5
5
5
5
5
5
5
POINT_DATA 26
FIELD FieldData 3
DISPLACEMENT 3 26  float
0.0000000e+00 0.0000000e+00 0.0000000e+00 
0.0000000e+00 0.0000000e+00 0.0000000e+00 
3.1313975e-03 -5.4796897e-03 0.0000000e+00 
-3.7385153e-03 -5.3207614e-03 0.0000000e+00 
5.3726095e-03 -2.1471700e-02 0.0000000e+00 
-8.0355471e-03 -2.1101283e-02 0.0000000e+00 
6.0646958e-03 -4.8401598e-02 0.0000000e+00 
-1.3578371e-02 -4.7848482e-02 0.0000000e+00 
4.4980799e-03 -8.6645909e-02 0.0000000e+00 
-2.1034945e-02 -8.6045645e-02 0.0000000e+00 
-1.8376014e-06 -1.3653098e-01 0.0000000e+00 
-3.1025730e-02 -1.3613026e-01 0.0000000e+00 
-8.0352044e-03 -1.9829707e-01 0.0000000e+00 
-4.4071231e-02 -1.9844519e-01 0.0000000e+00 
-1.9498933e-02 -2.6938730e-01 0.0000000e+00 
-5.9161726e-02 -2.6711938e-01 0.0000000e+00 
-3.3167113e-02 -3.4240690e-01 0.0000000e+00 
-7.5438336e-02 -3.3775675e-01 0.0000000e+00 
-4.8338242e-02 -4.1568905e-01 0.0000000e+00 
-9.2367649e-02 -4.0884382e-01 0.0000000e+00 
-6.4387567e-02 -4.8805287e-01 0.0000000e+00 
-1.0948078e-01 -4.7929299e-01 0.0000000e+00 
-8.0797322e-02 -5.5868053e-01 0.0000000e+00 
-1.2638800e-01 -5.4833204e-01 0.0000000e+00 
-9.7159542e-02 -6.2701583e-01 0.0000000e+00 
-1.4286931e-01 -6.1594534e-01 0.0000000e+00 
REACTION 3 26  float
0.0000000e+00 0.0000000e+00 0.0000000e+00 
0.0000000e+00 0.0000000e+00 0.0000000e+00 
0.0000000e+00 0.0000000e+00 0.0000000e+00 
0.0000000e+00 0.0000000e+00 0.0000000e+00 
0.0000000e+00 0.0000000e+00 0.0000000e+00 
0.0000000e+00 0.0000000e+00 0.0000000e+00 
0.0000000e+00 0.0000000e+00 0.0000000e+00 
0.0000000e+00 0.0000000e+00 0.0000000e+00 
0.0000000e+00 0.0000000e+00 0.0000000e+00 
0.0000000e+00 0.0000000e+00 0.0000000e+00 
0.0000000e+00 0.0000000e+00 0.0000000e+00 
0.0000000e+00 0.0000000e+00 0.0000000e+00 
0.0000000e+00 0.0000000e+00 0.0000000e+00 
0.0000000e+00 0.0000000e+00 0.0000000e+00 
0.0000000e+00 0.0000000e+00 0.0000000e+00 
0.0000000e+00 0.0000000e+00 0.0000000e+00 
0.0000000e+00 0.0000000e+00 0.0000000e+00 
0.0000000e+00 0.0000000e+00 0.0000000e+00 
0.0000000e+00 0.0000000e+00 0.0000000e+00 
0.0000000e+00 0.0000000e+00 0.0000000e+00 
0.0000000e+00 0.0000000e+00 0.0000000e+00 
0.0000000e+00 0.0000000e+00 0.0000000e+00 
0.0000000e+00 0.0000000e+00 0.0000000e+00 
0.0000000e+00 0.0000000e+00 0.0000000e+00 
0.0000000e+00 0.0000000e+00 0.0000000e+00 
0.0000000e+00 0.0000000e+00 0.0000000e+00 
VON_MISES_STRESS 1 26  float
6.8114289e+09
6.6562207e+09
6.5324785e+09
6.2468833e+09
6.0188442e+09
5.7177544e+09
5.4951199e+09
5.1592028e+09
4.9382886e+09
4.5662561e+09
4.3424783e+09
3.9320020e+09
3.7230871e+09
3.2735398e+09
3.0706004e+09
2.6004132e+09
2.4386770e+09
1.9895711e+09
1.8490355e+09
1.4235607e+09
1.3027547e+09
9.0490733e+08
8.0355078e+08
4.7168227e+08
4.4768509e+08
1.9306902e+08
CELL_DATA 24
FIELD FieldData 0
