# vtk DataFile Version 4.0
vtk output
ASCII
DATASET UNSTRUCTURED_GRID
POINTS 26 float
0.0000000e+00 1.0000000e-01 0.0000000e+00 
0.0000000e+00 0.0000000e+00 0.0000000e+00 
1.4766368e-01 1.0000000e-01 0.0000000e+00 
1.4883940e-01 0.0000000e+00 0.0000000e+00 
3.0036214e-01 1.0000000e-01 0.0000000e+00 
3.0422947e-01 0.0000000e+00 0.0000000e+00 
4.6008557e-01 1.0000000e-01 0.0000000e+00 
4.6697357e-01 0.0000000e+00 0.0000000e+00 
6.2771249e-01 1.0000000e-01 0.0000000e+00 
6.3798475e-01 0.0000000e+00 0.0000000e+00 
8.0424988e-01 1.0000000e-01 0.0000000e+00 
8.1830680e-01 0.0000000e+00 0.0000000e+00 
9.9085975e-01 1.0000000e-01 0.0000000e+00 
1.0091403e+00 0.0000000e+00 0.0000000e+00 
1.1816932e+00 1.0000000e-01 0.0000000e+00 
1.1957501e+00 0.0000000e+00 0.0000000e+00 
1.3620152e+00 1.0000000e-01 0.0000000e+00 
1.3722875e+00 0.0000000e+00 0.0000000e+00 
1.5330265e+00 1.0000000e-01 0.0000000e+00 
1.5399145e+00 0.0000000e+00 0.0000000e+00 
1.6957705e+00 1.0000000e-01 0.0000000e+00 
1.6996379e+00 0.0000000e+00 0.0000000e+00 
1.8511606e+00 1.0000000e-01 0.0000000e+00 
1.8523363e+00 0.0000000e+00 0.0000000e+00 
2.0000000e+00 1.0000000e-01 0.0000000e+00 
2.0000000e+00 0.0000000e+00 0.0000000e+00 

CELLS 24 96
3 25 24 23
3 0 1 2
3 1 3 2
3 2 3 4
3 24 22 23
3 23 22 21
3 3 5 4
3 4 5 6
3 22 20 21
3 21 20 19
3 5 7 6
3 6 7 8
3 20 18 19
3 19 18 17
3 7 9 8
3 8 9 10
3 18 16 17
3 17 16 15
3 9 11 10
3 10 11 12
3 16 14 15
3 15 14 13
3 11 13 12
3 12 13 14

CELL_TYPES 24
5
5
5
5
5
5
5
5
5
5
5
5
5
5
5
5
5
5
5
5
5
5
5
5
POINT_DATA 26
FIELD FieldData 3
DISPLACEMENT 3 26  float
0.0000000e+00 0.0000000e+00 0.0000000e+00 
0.0000000e+00 0.0000000e+00 0.0000000e+00 
4.3660994e-03 -7.9895472e-03 0.0000000e+00 
-5.5800257e-03 -7.5671040e-03 0.0000000e+00 
6.9854693e-03 -3.1259835e-02 0.0000000e+00 
-1.2366968e-02 -3.0112011e-02 0.0000000e+00 
6.4473688e-03 -7.0235685e-02 0.0000000e+00 
-2.1775022e-02 -6.8184383e-02 0.0000000e+00 
1.3502333e-03 -1.2516953e-01 0.0000000e+00 
-3.5156753e-02 -1.2224510e-01 0.0000000e+00 
-9.5851952e-03 -1.9620591e-01 0.0000000e+00 
-5.3743076e-02 -1.9265421e-01 0.0000000e+00 
-2.7445968e-02 -2.8336644e-01 0.0000000e+00 
-7.8551285e-02 -2.7963966e-01 0.0000000e+00 
-5.1923830e-02 -3.8283062e-01 0.0000000e+00 
-1.0764872e-01 -3.7487298e-01 0.0000000e+00 
-8.0334738e-02 -4.8422125e-01 0.0000000e+00 
-1.3922876e-01 -4.7226921e-01 0.0000000e+00 
-1.1131795e-01 -5.8536935e-01 0.0000000e+00 
-1.7222755e-01 -5.6986743e-01 0.0000000e+00 
-1.4370015e-01 -6.8481797e-01 0.0000000e+00 
-2.0572954e-01 -6.6631836e-01 0.0000000e+00 
-1.7653187e-01 -7.8161222e-01 0.0000000e+00 
-2.3898524e-01 -7.6070523e-01 0.0000000e+00 
-2.0907550e-01 -8.7513816e-01 0.0000000e+00 
-2.7161789e-01 -8.5315180e-01 0.0000000e+00 
REACTION 3 26  float
0.0000000e+00 0.0000000e+00 0.0000000e+00 
0.0000000e+00 0.0000000e+00 0.0000000e+00 
0.0000000e+00 0.0000000e+00 0.0000000e+00 
0.0000000e+00 0.0000000e+00 0.0000000e+00 
0.0000000e+00 0.0000000e+00 0.0000000e+00 
0.0000000e+00 0.0000000e+00 0.0000000e+00 
0.0000000e+00 0.0000000e+00 0.0000000e+00 
0.0000000e+00 0.0000000e+00 0.0000000e+00 
0.0000000e+00 0.0000000e+00 0.0000000e+00 
0.0000000e+00 0.0000000e+00 0.0000000e+00 
0.0000000e+00 0.0000000e+00 0.0000000e+00 
0.0000000e+00 0.0000000e+00 0.0000000e+00 
0.0000000e+00 0.0000000e+00 0.0000000e+00 
0.0000000e+00 0.0000000e+00 0.0000000e+00 
0.0000000e+00 0.0000000e+00 0.0000000e+00 
0.0000000e+00 0.0000000e+00 0.0000000e+00 
0.0000000e+00 0.0000000e+00 0.0000000e+00 
0.0000000e+00 0.0000000e+00 0.0000000e+00 
0.0000000e+00 0.0000000e+00 0.0000000e+00 
0.0000000e+00 0.0000000e+00 0.0000000e+00 
0.0000000e+00 0.0000000e+00 0.0000000e+00 
0.0000000e+00 0.0000000e+00 0.0000000e+00 
0.0000000e+00 0.0000000e+00 0.0000000e+00 
0.0000000e+00 0.0000000e+00 0.0000000e+00 
0.0000000e+00 0.0000000e+00 0.0000000e+00 
0.0000000e+00 0.0000000e+00 0.0000000e+00 
VON_MISES_STRESS 1 26  float
9.8290237e+09
9.6530852e+09
9.4504325e+09
9.0415964e+09
8.6643599e+09
8.2148280e+09
7.8626550e+09
7.3548534e+09
7.0217677e+09
6.4583875e+09
6.1371131e+09
5.5192044e+09
5.2335944e+09
4.5658086e+09
4.3008548e+09
3.6087414e+09
3.4108296e+09
2.7531139e+09
2.5911043e+09
1.9688893e+09
1.8380461e+09
1.2526931e+09
1.1488788e+09
6.4539251e+08
6.2761363e+08
2.0795197e+08
CELL_DATA 24
FIELD FieldData 0
