# vtk DataFile Version 4.0
vtk output
ASCII
DATASET UNSTRUCTURED_GRID
POINTS 26 float
0.0000000e+00 1.0000000e-01 0.0000000e+00 
0.0000000e+00 0.0000000e+00 0.0000000e+00 
1.4766368e-01 1.0000000e-01 0.0000000e+00 
1.4883940e-01 0.0000000e+00 0.0000000e+00 
3.0036214e-01 1.0000000e-01 0.0000000e+00 
3.0422947e-01 0.0000000e+00 0.0000000e+00 
4.6008557e-01 1.0000000e-01 0.0000000e+00 
4.6697357e-01 0.0000000e+00 0.0000000e+00 
6.2771249e-01 1.0000000e-01 0.0000000e+00 
6.3798475e-01 0.0000000e+00 0.0000000e+00 
8.0424988e-01 1.0000000e-01 0.0000000e+00 
8.1830680e-01 0.0000000e+00 0.0000000e+00 
9.9085975e-01 1.0000000e-01 0.0000000e+00 
1.0091403e+00 0.0000000e+00 0.0000000e+00 
1.1816932e+00 1.0000000e-01 0.0000000e+00 
1.1957501e+00 0.0000000e+00 0.0000000e+00 
1.3620152e+00 1.0000000e-01 0.0000000e+00 
1.3722875e+00 0.0000000e+00 0.0000000e+00 
1.5330265e+00 1.0000000e-01 0.0000000e+00 
1.5399145e+00 0.0000000e+00 0.0000000e+00 
1.6957705e+00 1.0000000e-01 0.0000000e+00 
1.6996379e+00 0.0000000e+00 0.0000000e+00 
1.8511606e+00 1.0000000e-01 0.0000000e+00 
1.8523363e+00 0.0000000e+00 0.0000000e+00 
2.0000000e+00 1.0000000e-01 0.0000000e+00 
2.0000000e+00 0.0000000e+00 0.0000000e+00 

CELLS 24 96
3 25 24 23
3 0 1 2
3 1 3 2
3 2 3 4
3 24 22 23
3 23 22 21
3 3 5 4
3 4 5 6
3 22 20 21
3 21 20 19
3 5 7 6
3 6 7 8
3 20 18 19
3 19 18 17
3 7 9 8
3 8 9 10
3 18 16 17
3 17 16 15
3 9 11 10
3 10 11 12
3 16 14 15
3 15 14 13
3 11 13 12
3 12 13 14

CELL_TYPES 24
5
5
5
5
5
5
5
5
5
5
5
5
5
5
5
5
5
5
5
5
5
5
5
5
POINT_DATA 26
FIELD FieldData 3
DISPLACEMENT 3 26  float
0.0000000e+00 0.0000000e+00 0.0000000e+00 
0.0000000e+00 0.0000000e+00 0.0000000e+00 
6.5219169e-03 -1.3199530e-02 0.0000000e+00 
-9.5888032e-03 -1.1901516e-02 0.0000000e+00 
8.6738039e-03 -5.1197775e-02 0.0000000e+00 
-2.2268834e-02 -4.7423858e-02 0.0000000e+00 
2.8884478e-03 -1.1362645e-01 0.0000000e+00 
-4.1471191e-02 -1.0653821e-01 0.0000000e+00 
-1.3878124e-02 -1.9954278e-01 0.0000000e+00 
-7.0231028e-02 -1.8887940e-01 0.0000000e+00 
-4.4067755e-02 -3.0782548e-01 0.0000000e+00 
-1.1106504e-01 -2.9385820e-01 0.0000000e+00 
-8.9473389e-02 -4.3731645e-01 0.0000000e+00 
-1.6586229e-01 -4.2078182e-01 0.0000000e+00 
-1.4872415e-01 -5.8164310e-01 0.0000000e+00 
-2.3002467e-01 -5.5702198e-01 0.0000000e+00 
-2.1506101e-01 -7.2584873e-01 0.0000000e+00 
-2.9921731e-01 -6.9405991e-01 0.0000000e+00 
-2.8561285e-01 -8.6752039e-01 0.0000000e+00 
-3.7117928e-01 -8.2966822e-01 0.0000000e+00 
-3.5810259e-01 -1.0053041e+00 0.0000000e+00 
-4.4409624e-01 -9.6252441e-01 0.0000000e+00 
-4.3080434e-01 -1.1384944e+00 0.0000000e+00 
-5.1656318e-01 -1.0918767e+00 0.0000000e+00 
-5.0243658e-01 -1.2667662e+00 0.0000000e+00 
-5.8809090e-01 -1.2183667e+00 0.0000000e+00 
REACTION 3 26  float
0.0000000e+00 0.0000000e+00 0.0000000e+00 
0.0000000e+00 0.0000000e+00 0.0000000e+00 
0.0000000e+00 0.0000000e+00 0.0000000e+00 
0.0000000e+00 0.0000000e+00 0.0000000e+00 
0.0000000e+00 0.0000000e+00 0.0000000e+00 
0.0000000e+00 0.0000000e+00 0.0000000e+00 
0.0000000e+00 0.0000000e+00 0.0000000e+00 
0.0000000e+00 0.0000000e+00 0.0000000e+00 
0.0000000e+00 0.0000000e+00 0.0000000e+00 
0.0000000e+00 0.0000000e+00 0.0000000e+00 
0.0000000e+00 0.0000000e+00 0.0000000e+00 
0.0000000e+00 0.0000000e+00 0.0000000e+00 
0.0000000e+00 0.0000000e+00 0.0000000e+00 
0.0000000e+00 0.0000000e+00 0.0000000e+00 
0.0000000e+00 0.0000000e+00 0.0000000e+00 
0.0000000e+00 0.0000000e+00 0.0000000e+00 
0.0000000e+00 0.0000000e+00 0.0000000e+00 
0.0000000e+00 0.0000000e+00 0.0000000e+00 
0.0000000e+00 0.0000000e+00 0.0000000e+00 
0.0000000e+00 0.0000000e+00 0.0000000e+00 
0.0000000e+00 0.0000000e+00 0.0000000e+00 
0.0000000e+00 0.0000000e+00 0.0000000e+00 
0.0000000e+00 0.0000000e+00 0.0000000e+00 
0.0000000e+00 0.0000000e+00 0.0000000e+00 
0.0000000e+00 0.0000000e+00 0.0000000e+00 
0.0000000e+00 0.0000000e+00 0.0000000e+00 
VON_MISES_STRESS 1 26  float
1.5874642e+10
1.5689519e+10
1.5270443e+10
1.4537779e+10
1.3748831e+10
1.2886261e+10
1.2213290e+10
1.1242108e+10
1.0669697e+10
9.6177306e+09
9.1278971e+09
8.0161633e+09
7.6367631e+09
6.4928655e+09
6.1913539e+09
5.0467850e+09
4.8769280e+09
3.8140045e+09
3.7182392e+09
2.7265684e+09
2.6885629e+09
1.7550931e+09
1.7602268e+09
8.9238061e+08
9.2131917e+08
6.5135104e+07
CELL_DATA 24
FIELD FieldData 0
