# vtk DataFile Version 4.0
vtk output
ASCII
DATASET UNSTRUCTURED_GRID
POINTS 26 float
0.0000000e+00 1.0000000e-01 0.0000000e+00 
0.0000000e+00 0.0000000e+00 0.0000000e+00 
1.4766368e-01 1.0000000e-01 0.0000000e+00 
1.4883940e-01 0.0000000e+00 0.0000000e+00 
3.0036214e-01 1.0000000e-01 0.0000000e+00 
3.0422947e-01 0.0000000e+00 0.0000000e+00 
4.6008557e-01 1.0000000e-01 0.0000000e+00 
4.6697357e-01 0.0000000e+00 0.0000000e+00 
6.2771249e-01 1.0000000e-01 0.0000000e+00 
6.3798475e-01 0.0000000e+00 0.0000000e+00 
8.0424988e-01 1.0000000e-01 0.0000000e+00 
8.1830680e-01 0.0000000e+00 0.0000000e+00 
9.9085975e-01 1.0000000e-01 0.0000000e+00 
1.0091403e+00 0.0000000e+00 0.0000000e+00 
1.1816932e+00 1.0000000e-01 0.0000000e+00 
1.1957501e+00 0.0000000e+00 0.0000000e+00 
1.3620152e+00 1.0000000e-01 0.0000000e+00 
1.3722875e+00 0.0000000e+00 0.0000000e+00 
1.5330265e+00 1.0000000e-01 0.0000000e+00 
1.5399145e+00 0.0000000e+00 0.0000000e+00 
1.6957705e+00 1.0000000e-01 0.0000000e+00 
1.6996379e+00 0.0000000e+00 0.0000000e+00 
1.8511606e+00 1.0000000e-01 0.0000000e+00 
1.8523363e+00 0.0000000e+00 0.0000000e+00 
2.0000000e+00 1.0000000e-01 0.0000000e+00 
2.0000000e+00 0.0000000e+00 0.0000000e+00 

CELLS 24 96
3 25 24 23
3 0 1 2
3 1 3 2
3 2 3 4
3 24 22 23
3 23 22 21
3 3 5 4
3 4 5 6
3 22 20 21
3 21 20 19
3 5 7 6
3 6 7 8
3 20 18 19
3 19 18 17
3 7 9 8
3 8 9 10
3 18 16 17
3 17 16 15
3 9 11 10
3 10 11 12
3 16 14 15
3 15 14 13
3 11 13 12
3 12 13 14

CELL_TYPES 24
5
5
5
5
5
5
5
5
5
5
5
5
5
5
5
5
5
5
5
5
5
5
5
5
POINT_DATA 26
FIELD FieldData 3
DISPLACEMENT 3 26  float
0.0000000e+00 0.0000000e+00 0.0000000e+00 
0.0000000e+00 0.0000000e+00 0.0000000e+00 
5.8853655e-04 -9.5608371e-04 0.0000000e+00 
-6.2033604e-04 -9.7179454e-04 0.0000000e+00 
1.1184113e-03 -3.7401139e-03 0.0000000e+00 
-1.2414085e-03 -3.8136207e-03 0.0000000e+00 
1.5803684e-03 -8.4423060e-03 0.0000000e+00 
-1.8819814e-03 -8.6321477e-03 0.0000000e+00 
1.9473116e-03 -1.5161827e-02 0.0000000e+00 
-2.5581522e-03 -1.5535354e-02 0.0000000e+00 
2.1911475e-03 -2.3994930e-02 0.0000000e+00 
-3.2829323e-03 -2.4626926e-02 0.0000000e+00 
2.2840970e-03 -3.5024855e-02 0.0000000e+00 
-4.0635751e-03 -3.5993006e-02 0.0000000e+00 
2.2285599e-03 -4.7820844e-02 0.0000000e+00 
-4.8295124e-03 -4.8573505e-02 0.0000000e+00 
2.0258287e-03 -6.1062176e-02 0.0000000e+00 
-5.5703023e-03 -6.1565135e-02 0.0000000e+00 
1.7068189e-03 -7.4430786e-02 0.0000000e+00 
-6.2751016e-03 -7.4673779e-02 0.0000000e+00 
1.3007988e-03 -8.7690026e-02 0.0000000e+00 
-6.9347243e-03 -8.7680832e-02 0.0000000e+00 
8.3289191e-04 -1.0066800e-01 0.0000000e+00 
-7.5419322e-03 -1.0042617e-01 0.0000000e+00 
3.2297999e-04 -1.1324273e-01 0.0000000e+00 
-8.0885598e-03 -1.1288570e-01 0.0000000e+00 
REACTION 3 26  float
0.0000000e+00 0.0000000e+00 0.0000000e+00 
0.0000000e+00 0.0000000e+00 0.0000000e+00 
0.0000000e+00 0.0000000e+00 0.0000000e+00 
0.0000000e+00 0.0000000e+00 0.0000000e+00 
0.0000000e+00 0.0000000e+00 0.0000000e+00 
0.0000000e+00 0.0000000e+00 0.0000000e+00 
0.0000000e+00 0.0000000e+00 0.0000000e+00 
0.0000000e+00 0.0000000e+00 0.0000000e+00 
0.0000000e+00 0.0000000e+00 0.0000000e+00 
0.0000000e+00 0.0000000e+00 0.0000000e+00 
0.0000000e+00 0.0000000e+00 0.0000000e+00 
0.0000000e+00 0.0000000e+00 0.0000000e+00 
0.0000000e+00 0.0000000e+00 0.0000000e+00 
0.0000000e+00 0.0000000e+00 0.0000000e+00 
0.0000000e+00 0.0000000e+00 0.0000000e+00 
0.0000000e+00 0.0000000e+00 0.0000000e+00 
0.0000000e+00 0.0000000e+00 0.0000000e+00 
0.0000000e+00 0.0000000e+00 0.0000000e+00 
0.0000000e+00 0.0000000e+00 0.0000000e+00 
0.0000000e+00 0.0000000e+00 0.0000000e+00 
0.0000000e+00 0.0000000e+00 0.0000000e+00 
0.0000000e+00 0.0000000e+00 0.0000000e+00 
0.0000000e+00 0.0000000e+00 0.0000000e+00 
0.0000000e+00 0.0000000e+00 0.0000000e+00 
0.0000000e+00 0.0000000e+00 0.0000000e+00 
0.0000000e+00 0.0000000e+00 0.0000000e+00 
VON_MISES_STRESS 1 26  float
1.2090929e+09
1.1674519e+09
1.1500390e+09
1.0941114e+09
1.0626583e+09
1.0078029e+09
9.7412736e+08
9.1537587e+08
8.7897376e+08
8.1555814e+08
7.7575629e+08
7.0667270e+08
6.6688659e+08
5.9111802e+08
5.5033741e+08
4.7118730e+08
4.3626928e+08
3.6099360e+08
3.2884790e+08
2.5813786e+08
2.2901011e+08
1.6423421e+08
1.3916085e+08
8.7980776e+07
8.0576344e+07
4.7058056e+07
CELL_DATA 24
FIELD FieldData 0
