# vtk DataFile Version 4.0
vtk output
ASCII
DATASET UNSTRUCTURED_GRID
POINTS 26 float
0.0000000e+00 1.0000000e-01 0.0000000e+00 
0.0000000e+00 0.0000000e+00 0.0000000e+00 
1.4766368e-01 1.0000000e-01 0.0000000e+00 
1.4883940e-01 0.0000000e+00 0.0000000e+00 
3.0036214e-01 1.0000000e-01 0.0000000e+00 
3.0422947e-01 0.0000000e+00 0.0000000e+00 
4.6008557e-01 1.0000000e-01 0.0000000e+00 
4.6697357e-01 0.0000000e+00 0.0000000e+00 
6.2771249e-01 1.0000000e-01 0.0000000e+00 
6.3798475e-01 0.0000000e+00 0.0000000e+00 
8.0424988e-01 1.0000000e-01 0.0000000e+00 
8.1830680e-01 0.0000000e+00 0.0000000e+00 
9.9085975e-01 1.0000000e-01 0.0000000e+00 
1.0091403e+00 0.0000000e+00 0.0000000e+00 
1.1816932e+00 1.0000000e-01 0.0000000e+00 
1.1957501e+00 0.0000000e+00 0.0000000e+00 
1.3620152e+00 1.0000000e-01 0.0000000e+00 
1.3722875e+00 0.0000000e+00 0.0000000e+00 
1.5330265e+00 1.0000000e-01 0.0000000e+00 
1.5399145e+00 0.0000000e+00 0.0000000e+00 
1.6957705e+00 1.0000000e-01 0.0000000e+00 
1.6996379e+00 0.0000000e+00 0.0000000e+00 
1.8511606e+00 1.0000000e-01 0.0000000e+00 
1.8523363e+00 0.0000000e+00 0.0000000e+00 
2.0000000e+00 1.0000000e-01 0.0000000e+00 
2.0000000e+00 0.0000000e+00 0.0000000e+00 

CELLS 24 96
3 25 24 23
3 0 1 2
3 1 3 2
3 2 3 4
3 24 22 23
3 23 22 21
3 3 5 4
3 4 5 6
3 22 20 21
3 21 20 19
3 5 7 6
3 6 7 8
3 20 18 19
3 19 18 17
3 7 9 8
3 8 9 10
3 18 16 17
3 17 16 15
3 9 11 10
3 10 11 12
3 16 14 15
3 15 14 13
3 11 13 12
3 12 13 14

CELL_TYPES 24
5
5
5
5
5
5
5
5
5
5
5
5
5
5
5
5
5
5
5
5
5
5
5
5
POINT_DATA 26
FIELD FieldData 3
DISPLACEMENT 3 26  float
0.0000000e+00 0.0000000e+00 0.0000000e+00 
0.0000000e+00 0.0000000e+00 0.0000000e+00 
1.4298074e-03 -2.3755697e-03 0.0000000e+00 
-1.5676275e-03 -2.3800822e-03 0.0000000e+00 
2.6390636e-03 -9.3033183e-03 0.0000000e+00 
-3.2161770e-03 -9.3766544e-03 0.0000000e+00 
3.5208878e-03 -2.1004152e-02 0.0000000e+00 
-5.0741001e-03 -2.1249089e-02 0.0000000e+00 
3.9290702e-03 -3.7709810e-02 0.0000000e+00 
-7.2638984e-03 -3.8258616e-02 0.0000000e+00 
3.7184185e-03 -5.9641864e-02 0.0000000e+00 
-9.8975319e-03 -6.0655009e-02 0.0000000e+00 
2.7528815e-03 -8.6988144e-02 0.0000000e+00 
-1.3064001e-02 -8.8645883e-02 0.0000000e+00 
1.0461357e-03 -1.1867063e-01 0.0000000e+00 
-1.6503071e-02 -1.1962087e-01 0.0000000e+00 
-1.2301547e-03 -1.5141170e-01 0.0000000e+00 
-2.0075362e-02 -1.5159975e-01 0.0000000e+00 
-3.9241393e-03 -1.8443108e-01 0.0000000e+00 
-2.3684695e-02 -1.8386559e-01 0.0000000e+00 
-6.8958057e-03 -2.1715343e-01 0.0000000e+00 
-2.7246088e-02 -2.1588784e-01 0.0000000e+00 
-1.0026487e-02 -2.4916442e-01 0.0000000e+00 
-3.0688947e-02 -2.4727926e-01 0.0000000e+00 
-1.3221923e-02 -2.8017205e-01 0.0000000e+00 
-3.3964645e-02 -2.7799097e-01 0.0000000e+00 
REACTION 3 26  float
0.0000000e+00 0.0000000e+00 0.0000000e+00 
0.0000000e+00 0.0000000e+00 0.0000000e+00 
0.0000000e+00 0.0000000e+00 0.0000000e+00 
0.0000000e+00 0.0000000e+00 0.0000000e+00 
0.0000000e+00 0.0000000e+00 0.0000000e+00 
0.0000000e+00 0.0000000e+00 0.0000000e+00 
0.0000000e+00 0.0000000e+00 0.0000000e+00 
0.0000000e+00 0.0000000e+00 0.0000000e+00 
0.0000000e+00 0.0000000e+00 0.0000000e+00 
0.0000000e+00 0.0000000e+00 0.0000000e+00 
0.0000000e+00 0.0000000e+00 0.0000000e+00 
0.0000000e+00 0.0000000e+00 0.0000000e+00 
0.0000000e+00 0.0000000e+00 0.0000000e+00 
0.0000000e+00 0.0000000e+00 0.0000000e+00 
0.0000000e+00 0.0000000e+00 0.0000000e+00 
0.0000000e+00 0.0000000e+00 0.0000000e+00 
0.0000000e+00 0.0000000e+00 0.0000000e+00 
0.0000000e+00 0.0000000e+00 0.0000000e+00 
0.0000000e+00 0.0000000e+00 0.0000000e+00 
0.0000000e+00 0.0000000e+00 0.0000000e+00 
0.0000000e+00 0.0000000e+00 0.0000000e+00 
0.0000000e+00 0.0000000e+00 0.0000000e+00 
0.0000000e+00 0.0000000e+00 0.0000000e+00 
0.0000000e+00 0.0000000e+00 0.0000000e+00 
0.0000000e+00 0.0000000e+00 0.0000000e+00 
0.0000000e+00 0.0000000e+00 0.0000000e+00 
VON_MISES_STRESS 1 26  float
2.9886912e+09
2.8978012e+09
2.8515185e+09
2.7187628e+09
2.6346593e+09
2.5016548e+09
2.4143660e+09
2.2697925e+09
2.1779302e+09
2.0201667e+09
1.9219295e+09
1.7488234e+09
1.6524581e+09
1.4620712e+09
1.3645912e+09
1.1651101e+09
1.0831200e+09
8.9275949e+08
8.1828339e+08
6.3868986e+08
5.7197395e+08
4.0614982e+08
3.4882781e+08
2.1550882e+08
1.9939984e+08
1.0746058e+08
CELL_DATA 24
FIELD FieldData 0
