# vtk DataFile Version 4.0
vtk output
ASCII
DATASET UNSTRUCTURED_GRID
POINTS 26 float
0.0000000e+00 1.0000000e-01 0.0000000e+00 
0.0000000e+00 0.0000000e+00 0.0000000e+00 
1.4766368e-01 1.0000000e-01 0.0000000e+00 
1.4883940e-01 0.0000000e+00 0.0000000e+00 
3.0036214e-01 1.0000000e-01 0.0000000e+00 
3.0422947e-01 0.0000000e+00 0.0000000e+00 
4.6008557e-01 1.0000000e-01 0.0000000e+00 
4.6697357e-01 0.0000000e+00 0.0000000e+00 
6.2771249e-01 1.0000000e-01 0.0000000e+00 
6.3798475e-01 0.0000000e+00 0.0000000e+00 
8.0424988e-01 1.0000000e-01 0.0000000e+00 
8.1830680e-01 0.0000000e+00 0.0000000e+00 
9.9085975e-01 1.0000000e-01 0.0000000e+00 
1.0091403e+00 0.0000000e+00 0.0000000e+00 
1.1816932e+00 1.0000000e-01 0.0000000e+00 
1.1957501e+00 0.0000000e+00 0.0000000e+00 
1.3620152e+00 1.0000000e-01 0.0000000e+00 
1.3722875e+00 0.0000000e+00 0.0000000e+00 
1.5330265e+00 1.0000000e-01 0.0000000e+00 
1.5399145e+00 0.0000000e+00 0.0000000e+00 
1.6957705e+00 1.0000000e-01 0.0000000e+00 
1.6996379e+00 0.0000000e+00 0.0000000e+00 
1.8511606e+00 1.0000000e-01 0.0000000e+00 
1.8523363e+00 0.0000000e+00 0.0000000e+00 
2.0000000e+00 1.0000000e-01 0.0000000e+00 
2.0000000e+00 0.0000000e+00 0.0000000e+00 

CELLS 24 96
3 25 24 23
3 0 1 2
3 1 3 2
3 2 3 4
3 24 22 23
3 23 22 21
3 3 5 4
3 4 5 6
3 22 20 21
3 21 20 19
3 5 7 6
3 6 7 8
3 20 18 19
3 19 18 17
3 7 9 8
3 8 9 10
3 18 16 17
3 17 16 15
3 9 11 10
3 10 11 12
3 16 14 15
3 15 14 13
3 11 13 12
3 12 13 14

CELL_TYPES 24
5
5
5
5
5
5
5
5
5
5
5
5
5
5
5
5
5
5
5
5
5
5
5
5
POINT_DATA 26
FIELD FieldData 3
DISPLACEMENT 3 26  float
0.0000000e+00 0.0000000e+00 0.0000000e+00 
0.0000000e+00 0.0000000e+00 0.0000000e+00 
7.0185051e-03 -1.4629585e-02 0.0000000e+00 
-1.0722117e-02 -1.3024276e-02 0.0000000e+00 
8.7667741e-03 -5.6538589e-02 0.0000000e+00 
-2.5135903e-02 -5.1850770e-02 0.0000000e+00 
1.0176419e-03 -1.2491124e-01 0.0000000e+00 
-4.7284566e-02 -1.1611317e-01 0.0000000e+00 
-1.9665744e-02 -2.1825159e-01 0.0000000e+00 
-8.0636799e-02 -2.0503674e-01 0.0000000e+00 
-5.5909082e-02 -3.3492124e-01 0.0000000e+00 
-1.2796552e-01 -3.1761733e-01 0.0000000e+00 
-1.0953219e-01 -4.7334099e-01 0.0000000e+00 
-1.9127008e-01 -4.5280507e-01 0.0000000e+00 
-1.7871664e-01 -6.2653935e-01 0.0000000e+00 
-2.6510334e-01 -5.9703559e-01 0.0000000e+00 
-2.5551254e-01 -7.7873594e-01 0.0000000e+00 
-3.4441587e-01 -7.4139315e-01 0.0000000e+00 
-3.3669597e-01 -9.2762387e-01 0.0000000e+00 
-4.2667013e-01 -8.8371384e-01 0.0000000e+00 
-4.1977438e-01 -1.0719995e+00 0.0000000e+00 
-5.0987637e-01 -1.0227829e+00 0.0000000e+00 
-5.0289792e-01 -1.2113074e+00 0.0000000e+00 
-5.9252375e-01 -1.1579643e+00 0.0000000e+00 
-5.8471417e-01 -1.3453556e+00 0.0000000e+00 
-6.7416877e-01 -1.2900550e+00 0.0000000e+00 
REACTION 3 26  float
0.0000000e+00 0.0000000e+00 0.0000000e+00 
0.0000000e+00 0.0000000e+00 0.0000000e+00 
0.0000000e+00 0.0000000e+00 0.0000000e+00 
0.0000000e+00 0.0000000e+00 0.0000000e+00 
0.0000000e+00 0.0000000e+00 0.0000000e+00 
0.0000000e+00 0.0000000e+00 0.0000000e+00 
0.0000000e+00 0.0000000e+00 0.0000000e+00 
0.0000000e+00 0.0000000e+00 0.0000000e+00 
0.0000000e+00 0.0000000e+00 0.0000000e+00 
0.0000000e+00 0.0000000e+00 0.0000000e+00 
0.0000000e+00 0.0000000e+00 0.0000000e+00 
0.0000000e+00 0.0000000e+00 0.0000000e+00 
0.0000000e+00 0.0000000e+00 0.0000000e+00 
0.0000000e+00 0.0000000e+00 0.0000000e+00 
0.0000000e+00 0.0000000e+00 0.0000000e+00 
0.0000000e+00 0.0000000e+00 0.0000000e+00 
0.0000000e+00 0.0000000e+00 0.0000000e+00 
0.0000000e+00 0.0000000e+00 0.0000000e+00 
0.0000000e+00 0.0000000e+00 0.0000000e+00 
0.0000000e+00 0.0000000e+00 0.0000000e+00 
0.0000000e+00 0.0000000e+00 0.0000000e+00 
0.0000000e+00 0.0000000e+00 0.0000000e+00 
0.0000000e+00 0.0000000e+00 0.0000000e+00 
0.0000000e+00 0.0000000e+00 0.0000000e+00 
0.0000000e+00 0.0000000e+00 0.0000000e+00 
0.0000000e+00 0.0000000e+00 0.0000000e+00 
VON_MISES_STRESS 1 26  float
1.7482961e+10
1.7293199e+10
1.6801519e+10
1.5951121e+10
1.5025331e+10
1.4012854e+10
1.3243362e+10
1.2111373e+10
1.1477514e+10
1.0265360e+10
9.7435576e+09
8.4804321e+09
8.0964127e+09
6.8180188e+09
6.5328660e+09
5.2689224e+09
5.1342111e+09
3.9700032e+09
3.9205494e+09
2.8407503e+09
2.8562140e+09
1.8434326e+09
1.9062726e+09
9.4784230e+08
9.9915328e+08
1.4985161e+07
CELL_DATA 24
FIELD FieldData 0
