# vtk DataFile Version 4.0
vtk output
ASCII
DATASET UNSTRUCTURED_GRID
POINTS 26 float
0.0000000e+00 1.0000000e-01 0.0000000e+00 
0.0000000e+00 0.0000000e+00 0.0000000e+00 
1.4766368e-01 1.0000000e-01 0.0000000e+00 
1.4883940e-01 0.0000000e+00 0.0000000e+00 
3.0036214e-01 1.0000000e-01 0.0000000e+00 
3.0422947e-01 0.0000000e+00 0.0000000e+00 
4.6008557e-01 1.0000000e-01 0.0000000e+00 
4.6697357e-01 0.0000000e+00 0.0000000e+00 
6.2771249e-01 1.0000000e-01 0.0000000e+00 
6.3798475e-01 0.0000000e+00 0.0000000e+00 
8.0424988e-01 1.0000000e-01 0.0000000e+00 
8.1830680e-01 0.0000000e+00 0.0000000e+00 
9.9085975e-01 1.0000000e-01 0.0000000e+00 
1.0091403e+00 0.0000000e+00 0.0000000e+00 
1.1816932e+00 1.0000000e-01 0.0000000e+00 
1.1957501e+00 0.0000000e+00 0.0000000e+00 
1.3620152e+00 1.0000000e-01 0.0000000e+00 
1.3722875e+00 0.0000000e+00 0.0000000e+00 
1.5330265e+00 1.0000000e-01 0.0000000e+00 
1.5399145e+00 0.0000000e+00 0.0000000e+00 
1.6957705e+00 1.0000000e-01 0.0000000e+00 
1.6996379e+00 0.0000000e+00 0.0000000e+00 
1.8511606e+00 1.0000000e-01 0.0000000e+00 
1.8523363e+00 0.0000000e+00 0.0000000e+00 
2.0000000e+00 1.0000000e-01 0.0000000e+00 
2.0000000e+00 0.0000000e+00 0.0000000e+00 

CELLS 24 96
3 25 24 23
3 0 1 2
3 1 3 2
3 2 3 4
3 24 22 23
3 23 22 21
3 3 5 4
3 4 5 6
3 22 20 21
3 21 20 19
3 5 7 6
3 6 7 8
3 20 18 19
3 19 18 17
3 7 9 8
3 8 9 10
3 18 16 17
3 17 16 15
3 9 11 10
3 10 11 12
3 16 14 15
3 15 14 13
3 11 13 12
3 12 13 14

CELL_TYPES 24
5
5
5
5
5
5
5
5
5
5
5
5
5
5
5
5
5
5
5
5
5
5
5
5
POINT_DATA 26
FIELD FieldData 3
DISPLACEMENT 3 26  float
0.0000000e+00 0.0000000e+00 0.0000000e+00 
0.0000000e+00 0.0000000e+00 0.0000000e+00 
2.5691944e-03 -4.4147247e-03 0.0000000e+00 
-2.9793647e-03 -4.3328106e-03 0.0000000e+00 
4.5268699e-03 -1.7300520e-02 0.0000000e+00 
-6.3095642e-03 -1.7149298e-02 0.0000000e+00 
5.4539419e-03 -3.9031852e-02 0.0000000e+00 
-1.0439704e-02 -3.8890556e-02 0.0000000e+00 
4.8769610e-03 -6.9965839e-02 0.0000000e+00 
-1.5806628e-02 -6.9988653e-02 0.0000000e+00 
2.3392099e-03 -1.1042755e-01 0.0000000e+00 
-2.2817023e-02 -1.1084566e-01 0.0000000e+00 
-2.5725104e-03 -1.6067462e-01 0.0000000e+00 
-3.1810876e-02 -1.6178694e-01 0.0000000e+00 
-9.8003894e-03 -2.1866912e-01 0.0000000e+00 
-4.2085923e-02 -2.1803682e-01 0.0000000e+00 
-1.8581551e-02 -2.7838945e-01 0.0000000e+00 
-5.3093202e-02 -2.7599514e-01 0.0000000e+00 
-2.8442923e-02 -3.3844617e-01 0.0000000e+00 
-6.4483173e-02 -3.3439580e-01 0.0000000e+00 
-3.8958088e-02 -3.9783821e-01 0.0000000e+00 
-7.5946927e-02 -3.9231700e-01 0.0000000e+00 
-4.9770687e-02 -4.5586047e-01 0.0000000e+00 
-8.7226875e-02 -4.4909593e-01 0.0000000e+00 
-6.0598738e-02 -5.1202583e-01 0.0000000e+00 
-9.8170139e-02 -5.0468910e-01 0.0000000e+00 
REACTION 3 26  float
0.0000000e+00 0.0000000e+00 0.0000000e+00 
0.0000000e+00 0.0000000e+00 0.0000000e+00 
0.0000000e+00 0.0000000e+00 0.0000000e+00 
0.0000000e+00 0.0000000e+00 0.0000000e+00 
0.0000000e+00 0.0000000e+00 0.0000000e+00 
0.0000000e+00 0.0000000e+00 0.0000000e+00 
0.0000000e+00 0.0000000e+00 0.0000000e+00 
0.0000000e+00 0.0000000e+00 0.0000000e+00 
0.0000000e+00 0.0000000e+00 0.0000000e+00 
0.0000000e+00 0.0000000e+00 0.0000000e+00 
0.0000000e+00 0.0000000e+00 0.0000000e+00 
0.0000000e+00 0.0000000e+00 0.0000000e+00 
0.0000000e+00 0.0000000e+00 0.0000000e+00 
0.0000000e+00 0.0000000e+00 0.0000000e+00 
0.0000000e+00 0.0000000e+00 0.0000000e+00 
0.0000000e+00 0.0000000e+00 0.0000000e+00 
0.0000000e+00 0.0000000e+00 0.0000000e+00 
0.0000000e+00 0.0000000e+00 0.0000000e+00 
0.0000000e+00 0.0000000e+00 0.0000000e+00 
0.0000000e+00 0.0000000e+00 0.0000000e+00 
0.0000000e+00 0.0000000e+00 0.0000000e+00 
0.0000000e+00 0.0000000e+00 0.0000000e+00 
0.0000000e+00 0.0000000e+00 0.0000000e+00 
0.0000000e+00 0.0000000e+00 0.0000000e+00 
0.0000000e+00 0.0000000e+00 0.0000000e+00 
0.0000000e+00 0.0000000e+00 0.0000000e+00 
VON_MISES_STRESS 1 26  float
5.5109309e+09
5.3719880e+09
5.2771922e+09
5.0427791e+09
4.8689152e+09
4.6261842e+09
4.4529997e+09
4.1842898e+09
4.0089377e+09
3.7123978e+09
3.5312927e+09
3.2042007e+09
3.0320056e+09
2.6726912e+09
2.5027594e+09
2.1262501e+09
1.9879259e+09
1.6280666e+09
1.5056893e+09
1.1649852e+09
1.0579555e+09
7.4053952e+08
6.4966362e+08
3.8820554e+08
3.6505731e+08
1.7152808e+08
CELL_DATA 24
FIELD FieldData 0
