# vtk DataFile Version 4.0
vtk output
ASCII
DATASET UNSTRUCTURED_GRID
POINTS 26 float
0.0000000e+00 1.0000000e-01 0.0000000e+00 
0.0000000e+00 0.0000000e+00 0.0000000e+00 
1.4766368e-01 1.0000000e-01 0.0000000e+00 
1.4883940e-01 0.0000000e+00 0.0000000e+00 
3.0036214e-01 1.0000000e-01 0.0000000e+00 
3.0422947e-01 0.0000000e+00 0.0000000e+00 
4.6008557e-01 1.0000000e-01 0.0000000e+00 
4.6697357e-01 0.0000000e+00 0.0000000e+00 
6.2771249e-01 1.0000000e-01 0.0000000e+00 
6.3798475e-01 0.0000000e+00 0.0000000e+00 
8.0424988e-01 1.0000000e-01 0.0000000e+00 
8.1830680e-01 0.0000000e+00 0.0000000e+00 
9.9085975e-01 1.0000000e-01 0.0000000e+00 
1.0091403e+00 0.0000000e+00 0.0000000e+00 
1.1816932e+00 1.0000000e-01 0.0000000e+00 
1.1957501e+00 0.0000000e+00 0.0000000e+00 
1.3620152e+00 1.0000000e-01 0.0000000e+00 
1.3722875e+00 0.0000000e+00 0.0000000e+00 
1.5330265e+00 1.0000000e-01 0.0000000e+00 
1.5399145e+00 0.0000000e+00 0.0000000e+00 
1.6957705e+00 1.0000000e-01 0.0000000e+00 
1.6996379e+00 0.0000000e+00 0.0000000e+00 
1.8511606e+00 1.0000000e-01 0.0000000e+00 
1.8523363e+00 0.0000000e+00 0.0000000e+00 
2.0000000e+00 1.0000000e-01 0.0000000e+00 
2.0000000e+00 0.0000000e+00 0.0000000e+00 

CELLS 24 96
3 25 24 23
3 0 1 2
3 1 3 2
3 2 3 4
3 24 22 23
3 23 22 21
3 3 5 4
3 4 5 6
3 22 20 21
3 21 20 19
3 5 7 6
3 6 7 8
3 20 18 19
3 19 18 17
3 7 9 8
3 8 9 10
3 18 16 17
3 17 16 15
3 9 11 10
3 10 11 12
3 16 14 15
3 15 14 13
3 11 13 12
3 12 13 14

CELL_TYPES 24
5
5
5
5
5
5
5
5
5
5
5
5
5
5
5
5
5
5
5
5
5
5
5
5
POINT_DATA 26
FIELD FieldData 3
DISPLACEMENT 3 26  float
0.0000000e+00 0.0000000e+00 0.0000000e+00 
0.0000000e+00 0.0000000e+00 0.0000000e+00 
4.9849157e-03 -9.3565583e-03 0.0000000e+00 
-6.6102943e-03 -8.7448843e-03 0.0000000e+00 
7.6414323e-03 -3.6551569e-02 0.0000000e+00 
-1.4861947e-02 -3.4836844e-02 0.0000000e+00 
6.0550217e-03 -8.1917718e-02 0.0000000e+00 
-2.6646370e-02 -7.8768238e-02 0.0000000e+00 
-1.6049381e-03 -1.4552218e-01 0.0000000e+00 
-4.3745413e-02 -1.4088893e-01 0.0000000e+00 
-1.6964158e-02 -2.2729032e-01 0.0000000e+00 
-6.7751363e-02 -2.2141083e-01 0.0000000e+00 
-4.1362438e-02 -3.2701734e-01 0.0000000e+00 
-9.9957228e-02 -3.2040134e-01 0.0000000e+00 
-7.4303143e-02 -4.4018516e-01 0.0000000e+00 
-1.3781802e-01 -4.2828459e-01 0.0000000e+00 
-1.1213061e-01 -5.5498338e-01 0.0000000e+00 
-1.7891110e-01 -5.3818756e-01 0.0000000e+00 
-1.5308233e-01 -6.6907310e-01 0.0000000e+00 
-2.2185157e-01 -6.4799380e-01 0.0000000e+00 
-1.9566873e-01 -7.8094047e-01 0.0000000e+00 
-2.6546603e-01 -7.5629145e-01 0.0000000e+00 
-2.3870267e-01 -8.8963383e-01 0.0000000e+00 
-3.0880520e-01 -8.6215311e-01 0.0000000e+00 
-2.8127116e-01 -9.9456936e-01 0.0000000e+00 
-3.5142544e-01 -9.6581692e-01 0.0000000e+00 
REACTION 3 26  float
0.0000000e+00 0.0000000e+00 0.0000000e+00 
0.0000000e+00 0.0000000e+00 0.0000000e+00 
0.0000000e+00 0.0000000e+00 0.0000000e+00 
0.0000000e+00 0.0000000e+00 0.0000000e+00 
0.0000000e+00 0.0000000e+00 0.0000000e+00 
0.0000000e+00 0.0000000e+00 0.0000000e+00 
0.0000000e+00 0.0000000e+00 0.0000000e+00 
0.0000000e+00 0.0000000e+00 0.0000000e+00 
0.0000000e+00 0.0000000e+00 0.0000000e+00 
0.0000000e+00 0.0000000e+00 0.0000000e+00 
0.0000000e+00 0.0000000e+00 0.0000000e+00 
0.0000000e+00 0.0000000e+00 0.0000000e+00 
0.0000000e+00 0.0000000e+00 0.0000000e+00 
0.0000000e+00 0.0000000e+00 0.0000000e+00 
0.0000000e+00 0.0000000e+00 0.0000000e+00 
0.0000000e+00 0.0000000e+00 0.0000000e+00 
0.0000000e+00 0.0000000e+00 0.0000000e+00 
0.0000000e+00 0.0000000e+00 0.0000000e+00 
0.0000000e+00 0.0000000e+00 0.0000000e+00 
0.0000000e+00 0.0000000e+00 0.0000000e+00 
0.0000000e+00 0.0000000e+00 0.0000000e+00 
0.0000000e+00 0.0000000e+00 0.0000000e+00 
0.0000000e+00 0.0000000e+00 0.0000000e+00 
0.0000000e+00 0.0000000e+00 0.0000000e+00 
0.0000000e+00 0.0000000e+00 0.0000000e+00 
0.0000000e+00 0.0000000e+00 0.0000000e+00 
VON_MISES_STRESS 1 26  float
1.1443953e+10
1.1263728e+10
1.1011393e+10
1.0529676e+10
1.0057876e+10
9.5167744e+09
9.0865766e+09
8.4735473e+09
8.0773729e+09
7.3992540e+09
7.0279613e+09
6.2893164e+09
5.9692063e+09
5.1792809e+09
4.8914642e+09
4.0788296e+09
3.8738662e+09
3.1052063e+09
2.9453852e+09
2.2199260e+09
2.0980384e+09
1.4143156e+09
1.3236186e+09
7.2488736e+08
7.1536883e+08
1.9355059e+08
CELL_DATA 24
FIELD FieldData 0
