# vtk DataFile Version 4.0
vtk output
ASCII
DATASET UNSTRUCTURED_GRID
POINTS 26 float
0.0000000e+00 1.0000000e-01 0.0000000e+00 
0.0000000e+00 0.0000000e+00 0.0000000e+00 
1.4766368e-01 1.0000000e-01 0.0000000e+00 
1.4883940e-01 0.0000000e+00 0.0000000e+00 
3.0036214e-01 1.0000000e-01 0.0000000e+00 
3.0422947e-01 0.0000000e+00 0.0000000e+00 
4.6008557e-01 1.0000000e-01 0.0000000e+00 
4.6697357e-01 0.0000000e+00 0.0000000e+00 
6.2771249e-01 1.0000000e-01 0.0000000e+00 
6.3798475e-01 0.0000000e+00 0.0000000e+00 
8.0424988e-01 1.0000000e-01 0.0000000e+00 
8.1830680e-01 0.0000000e+00 0.0000000e+00 
9.9085975e-01 1.0000000e-01 0.0000000e+00 
1.0091403e+00 0.0000000e+00 0.0000000e+00 
1.1816932e+00 1.0000000e-01 0.0000000e+00 
1.1957501e+00 0.0000000e+00 0.0000000e+00 
1.3620152e+00 1.0000000e-01 0.0000000e+00 
1.3722875e+00 0.0000000e+00 0.0000000e+00 
1.5330265e+00 1.0000000e-01 0.0000000e+00 
1.5399145e+00 0.0000000e+00 0.0000000e+00 
1.6957705e+00 1.0000000e-01 0.0000000e+00 
1.6996379e+00 0.0000000e+00 0.0000000e+00 
1.8511606e+00 1.0000000e-01 0.0000000e+00 
1.8523363e+00 0.0000000e+00 0.0000000e+00 
2.0000000e+00 1.0000000e-01 0.0000000e+00 
2.0000000e+00 0.0000000e+00 0.0000000e+00 

CELLS 24 96
3 25 24 23
3 0 1 2
3 1 3 2
3 2 3 4
3 24 22 23
3 23 22 21
3 3 5 4
3 4 5 6
3 22 20 21
3 21 20 19
3 5 7 6
3 6 7 8
3 20 18 19
3 19 18 17
3 7 9 8
3 8 9 10
3 18 16 17
3 17 16 15
3 9 11 10
3 10 11 12
3 16 14 15
3 15 14 13
3 11 13 12
3 12 13 14

CELL_TYPES 24
5
5
5
5
5
5
5
5
5
5
5
5
5
5
5
5
5
5
5
5
5
5
5
5
POINT_DATA 26
FIELD FieldData 3
DISPLACEMENT 3 26  float
0.0000000e+00 0.0000000e+00 0.0000000e+00 
0.0000000e+00 0.0000000e+00 0.0000000e+00 
4.9126297e-03 -9.1924462e-03 0.0000000e+00 
-6.4856946e-03 -8.6051086e-03 0.0000000e+00 
7.5708684e-03 -3.5918158e-02 0.0000000e+00 
-1.4557933e-02 -3.4276493e-02 0.0000000e+00 
6.1236611e-03 -8.0524810e-02 0.0000000e+00 
-2.6048308e-02 -7.7516727e-02 0.0000000e+00 
-1.2070322e-03 -1.4310654e-01 0.0000000e+00 
-4.2685825e-02 -1.3869293e-01 0.0000000e+00 
-1.6005777e-02 -2.2361958e-01 0.0000000e+00 
-6.6019297e-02 -2.1803886e-01 0.0000000e+00 
-3.9583597e-02 -3.2189012e-01 0.0000000e+00 
-9.7309470e-02 -3.1564471e-01 0.0000000e+00 
-7.1469739e-02 -4.3348354e-01 0.0000000e+00 
-1.3408867e-01 -4.2208046e-01 0.0000000e+00 
-1.0813048e-01 -5.4675347e-01 0.0000000e+00 
-1.7401101e-01 -5.3056228e-01 0.0000000e+00 
-1.4785229e-01 -6.5937722e-01 0.0000000e+00 
-2.1573061e-01 -6.3898903e-01 0.0000000e+00 
-1.8918331e-01 -7.6984447e-01 0.0000000e+00 
-2.5810486e-01 -7.4595356e-01 0.0000000e+00 
-2.3096433e-01 -8.7720025e-01 0.0000000e+00 
-3.0020794e-01 -8.5052717e-01 0.0000000e+00 
-2.7230263e-01 -9.8085511e-01 0.0000000e+00 
-3.4160313e-01 -9.5293319e-01 0.0000000e+00 
REACTION 3 26  float
0.0000000e+00 0.0000000e+00 0.0000000e+00 
0.0000000e+00 0.0000000e+00 0.0000000e+00 
0.0000000e+00 0.0000000e+00 0.0000000e+00 
0.0000000e+00 0.0000000e+00 0.0000000e+00 
0.0000000e+00 0.0000000e+00 0.0000000e+00 
0.0000000e+00 0.0000000e+00 0.0000000e+00 
0.0000000e+00 0.0000000e+00 0.0000000e+00 
0.0000000e+00 0.0000000e+00 0.0000000e+00 
0.0000000e+00 0.0000000e+00 0.0000000e+00 
0.0000000e+00 0.0000000e+00 0.0000000e+00 
0.0000000e+00 0.0000000e+00 0.0000000e+00 
0.0000000e+00 0.0000000e+00 0.0000000e+00 
0.0000000e+00 0.0000000e+00 0.0000000e+00 
0.0000000e+00 0.0000000e+00 0.0000000e+00 
0.0000000e+00 0.0000000e+00 0.0000000e+00 
0.0000000e+00 0.0000000e+00 0.0000000e+00 
0.0000000e+00 0.0000000e+00 0.0000000e+00 
0.0000000e+00 0.0000000e+00 0.0000000e+00 
0.0000000e+00 0.0000000e+00 0.0000000e+00 
0.0000000e+00 0.0000000e+00 0.0000000e+00 
0.0000000e+00 0.0000000e+00 0.0000000e+00 
0.0000000e+00 0.0000000e+00 0.0000000e+00 
0.0000000e+00 0.0000000e+00 0.0000000e+00 
0.0000000e+00 0.0000000e+00 0.0000000e+00 
0.0000000e+00 0.0000000e+00 0.0000000e+00 
0.0000000e+00 0.0000000e+00 0.0000000e+00 
VON_MISES_STRESS 1 26  float
1.1251155e+10
1.1071278e+10
1.0825167e+10
1.0352534e+10
9.8925916e+09
9.3630003e+09
8.9424323e+09
8.3425654e+09
7.9540055e+09
7.2901181e+09
6.9246710e+09
6.2008392e+09
5.8845537e+09
5.1094093e+09
4.8238843e+09
4.0256776e+09
3.8210514e+09
3.0655700e+09
2.9049372e+09
2.1916756e+09
2.0681489e+09
1.3960308e+09
1.3031914e+09
7.1592582e+08
7.0524045e+08
1.9614274e+08
CELL_DATA 24
FIELD FieldData 0
