# vtk DataFile Version 4.0
vtk output
ASCII
DATASET UNSTRUCTURED_GRID
POINTS 26 float
0.0000000e+00 1.0000000e-01 0.0000000e+00 
0.0000000e+00 0.0000000e+00 0.0000000e+00 
1.4766368e-01 1.0000000e-01 0.0000000e+00 
1.4883940e-01 0.0000000e+00 0.0000000e+00 
3.0036214e-01 1.0000000e-01 0.0000000e+00 
3.0422947e-01 0.0000000e+00 0.0000000e+00 
4.6008557e-01 1.0000000e-01 0.0000000e+00 
4.6697357e-01 0.0000000e+00 0.0000000e+00 
6.2771249e-01 1.0000000e-01 0.0000000e+00 
6.3798475e-01 0.0000000e+00 0.0000000e+00 
8.0424988e-01 1.0000000e-01 0.0000000e+00 
8.1830680e-01 0.0000000e+00 0.0000000e+00 
9.9085975e-01 1.0000000e-01 0.0000000e+00 
1.0091403e+00 0.0000000e+00 0.0000000e+00 
1.1816932e+00 1.0000000e-01 0.0000000e+00 
1.1957501e+00 0.0000000e+00 0.0000000e+00 
1.3620152e+00 1.0000000e-01 0.0000000e+00 
1.3722875e+00 0.0000000e+00 0.0000000e+00 
1.5330265e+00 1.0000000e-01 0.0000000e+00 
1.5399145e+00 0.0000000e+00 0.0000000e+00 
1.6957705e+00 1.0000000e-01 0.0000000e+00 
1.6996379e+00 0.0000000e+00 0.0000000e+00 
1.8511606e+00 1.0000000e-01 0.0000000e+00 
1.8523363e+00 0.0000000e+00 0.0000000e+00 
2.0000000e+00 1.0000000e-01 0.0000000e+00 
2.0000000e+00 0.0000000e+00 0.0000000e+00 

CELLS 24 96
3 25 24 23
3 0 1 2
3 1 3 2
3 2 3 4
3 24 22 23
3 23 22 21
3 3 5 4
3 4 5 6
3 22 20 21
3 21 20 19
3 5 7 6
3 6 7 8
3 20 18 19
3 19 18 17
3 7 9 8
3 8 9 10
3 18 16 17
3 17 16 15
3 9 11 10
3 10 11 12
3 16 14 15
3 15 14 13
3 11 13 12
3 12 13 14

CELL_TYPES 24
5
5
5
5
5
5
5
5
5
5
5
5
5
5
5
5
5
5
5
5
5
5
5
5
POINT_DATA 26
FIELD FieldData 3
DISPLACEMENT 3 26  float
0.0000000e+00 0.0000000e+00 0.0000000e+00 
0.0000000e+00 0.0000000e+00 0.0000000e+00 
6.3832062e-03 -1.2819663e-02 0.0000000e+00 
-9.2897760e-03 -1.1598841e-02 0.0000000e+00 
8.6233644e-03 -4.9768161e-02 0.0000000e+00 
-2.1515680e-02 -4.6224892e-02 0.0000000e+00 
3.3266156e-03 -1.1057841e-01 0.0000000e+00 
-3.9948169e-02 -1.0392577e-01 0.0000000e+00 
-1.2438558e-02 -1.9443923e-01 0.0000000e+00 
-6.7502059e-02 -1.8443282e-01 0.0000000e+00 
-4.1051876e-02 -3.0035731e-01 0.0000000e+00 
-1.0661591e-01 -2.8725815e-01 0.0000000e+00 
-8.4284864e-02 -4.2728317e-01 0.0000000e+00 
-1.5913790e-01 -4.1179937e-01 0.0000000e+00 
-1.4087538e-01 -5.6901383e-01 0.0000000e+00 
-2.2068985e-01 -5.4569614e-01 0.0000000e+00 
-2.0438227e-01 -7.1084291e-01 0.0000000e+00 
-2.8712940e-01 -6.8055421e-01 0.0000000e+00 
-2.7203569e-01 -8.5033995e-01 0.0000000e+00 
-3.5627511e-01 -8.1413764e-01 0.0000000e+00 
-3.4162417e-01 -9.8611766e-01 0.0000000e+00 
-4.2636603e-01 -9.4510084e-01 0.0000000e+00 
-4.1146258e-01 -1.1174345e+00 0.0000000e+00 
-4.9603182e-01 -1.0726644e+00 0.0000000e+00 
-4.8029473e-01 -1.2439320e+00 0.0000000e+00 
-5.6477690e-01 -1.1974280e+00 0.0000000e+00 
REACTION 3 26  float
0.0000000e+00 0.0000000e+00 0.0000000e+00 
0.0000000e+00 0.0000000e+00 0.0000000e+00 
0.0000000e+00 0.0000000e+00 0.0000000e+00 
0.0000000e+00 0.0000000e+00 0.0000000e+00 
0.0000000e+00 0.0000000e+00 0.0000000e+00 
0.0000000e+00 0.0000000e+00 0.0000000e+00 
0.0000000e+00 0.0000000e+00 0.0000000e+00 
0.0000000e+00 0.0000000e+00 0.0000000e+00 
0.0000000e+00 0.0000000e+00 0.0000000e+00 
0.0000000e+00 0.0000000e+00 0.0000000e+00 
0.0000000e+00 0.0000000e+00 0.0000000e+00 
0.0000000e+00 0.0000000e+00 0.0000000e+00 
0.0000000e+00 0.0000000e+00 0.0000000e+00 
0.0000000e+00 0.0000000e+00 0.0000000e+00 
0.0000000e+00 0.0000000e+00 0.0000000e+00 
0.0000000e+00 0.0000000e+00 0.0000000e+00 
0.0000000e+00 0.0000000e+00 0.0000000e+00 
0.0000000e+00 0.0000000e+00 0.0000000e+00 
0.0000000e+00 0.0000000e+00 0.0000000e+00 
0.0000000e+00 0.0000000e+00 0.0000000e+00 
0.0000000e+00 0.0000000e+00 0.0000000e+00 
0.0000000e+00 0.0000000e+00 0.0000000e+00 
0.0000000e+00 0.0000000e+00 0.0000000e+00 
0.0000000e+00 0.0000000e+00 0.0000000e+00 
0.0000000e+00 0.0000000e+00 0.0000000e+00 
0.0000000e+00 0.0000000e+00 0.0000000e+00 
VON_MISES_STRESS 1 26  float
1.5443796e+10
1.5259415e+10
1.4858651e+10
1.4154742e+10
1.3400472e+10
1.2574719e+10
1.1926972e+10
1.0995866e+10
1.0440346e+10
9.4289848e+09
8.9489316e+09
7.8763151e+09
7.4998733e+09
6.3915223e+09
6.0877107e+09
4.9752950e+09
4.7981517e+09
3.7629356e+09
3.6569170e+09
2.6897175e+09
2.6395098e+09
1.7285135e+09
1.7202748e+09
8.7905312e+08
9.0347994e+08
8.3548000e+07
CELL_DATA 24
FIELD FieldData 0
