# vtk DataFile Version 4.0
vtk output
ASCII
DATASET UNSTRUCTURED_GRID
POINTS 26 float
0.0000000e+00 1.0000000e-01 0.0000000e+00 
0.0000000e+00 0.0000000e+00 0.0000000e+00 
1.4766368e-01 1.0000000e-01 0.0000000e+00 
1.4883940e-01 0.0000000e+00 0.0000000e+00 
3.0036214e-01 1.0000000e-01 0.0000000e+00 
3.0422947e-01 0.0000000e+00 0.0000000e+00 
4.6008557e-01 1.0000000e-01 0.0000000e+00 
4.6697357e-01 0.0000000e+00 0.0000000e+00 
6.2771249e-01 1.0000000e-01 0.0000000e+00 
6.3798475e-01 0.0000000e+00 0.0000000e+00 
8.0424988e-01 1.0000000e-01 0.0000000e+00 
8.1830680e-01 0.0000000e+00 0.0000000e+00 
9.9085975e-01 1.0000000e-01 0.0000000e+00 
1.0091403e+00 0.0000000e+00 0.0000000e+00 
1.1816932e+00 1.0000000e-01 0.0000000e+00 
1.1957501e+00 0.0000000e+00 0.0000000e+00 
1.3620152e+00 1.0000000e-01 0.0000000e+00 
1.3722875e+00 0.0000000e+00 0.0000000e+00 
1.5330265e+00 1.0000000e-01 0.0000000e+00 
1.5399145e+00 0.0000000e+00 0.0000000e+00 
1.6957705e+00 1.0000000e-01 0.0000000e+00 
1.6996379e+00 0.0000000e+00 0.0000000e+00 
1.8511606e+00 1.0000000e-01 0.0000000e+00 
1.8523363e+00 0.0000000e+00 0.0000000e+00 
2.0000000e+00 1.0000000e-01 0.0000000e+00 
2.0000000e+00 0.0000000e+00 0.0000000e+00 

CELLS 24 96
3 25 24 23
3 0 1 2
3 1 3 2
3 2 3 4
3 24 22 23
3 23 22 21
3 3 5 4
3 4 5 6
3 22 20 21
3 21 20 19
3 5 7 6
3 6 7 8
3 20 18 19
3 19 18 17
3 7 9 8
3 8 9 10
3 18 16 17
3 17 16 15
3 9 11 10
3 10 11 12
3 16 14 15
3 15 14 13
3 11 13 12
3 12 13 14

CELL_TYPES 24
5
5
5
5
5
5
5
5
5
5
5
5
5
5
5
5
5
5
5
5
5
5
5
5
POINT_DATA 26
FIELD FieldData 3
DISPLACEMENT 3 26  float
0.0000000e+00 0.0000000e+00 0.0000000e+00 
0.0000000e+00 0.0000000e+00 0.0000000e+00 
3.0230363e-03 -5.2710362e-03 0.0000000e+00 
-3.5886678e-03 -5.1288763e-03 0.0000000e+00 
5.2144988e-03 -2.0655034e-02 0.0000000e+00 
-7.6917736e-03 -2.0332929e-02 0.0000000e+00 
5.9664026e-03 -4.6569567e-02 0.0000000e+00 
-1.2946353e-02 -4.6108112e-02 0.0000000e+00 
4.6185884e-03 -8.3390340e-02 0.0000000e+00 
-1.9971851e-02 -8.2930200e-02 0.0000000e+00 
5.4158684e-04 -1.3144681e-01 0.0000000e+00 
-2.9344132e-02 -1.3123260e-01 0.0000000e+00 
-6.8264864e-03 -1.9098598e-01 0.0000000e+00 
-4.1546248e-02 -1.9135763e-01 0.0000000e+00 
-1.7392997e-02 -2.5955358e-01 0.0000000e+00 
-5.5632770e-02 -2.5764665e-01 0.0000000e+00 
-3.0030660e-02 -3.3001974e-01 0.0000000e+00 
-7.0810333e-02 -3.2585627e-01 0.0000000e+00 
-4.4085614e-02 -4.0076923e-01 0.0000000e+00 
-8.6583927e-02 -3.9451900e-01 0.0000000e+00 
-5.8974113e-02 -4.7065377e-01 0.0000000e+00 
-1.0251789e-01 -4.6257731e-01 0.0000000e+00 
-7.4211560e-02 -5.3887516e-01 0.0000000e+00 
-1.1824978e-01 -5.2927828e-01 0.0000000e+00 
-8.9415759e-02 -6.0488868e-01 0.0000000e+00 
-1.3357310e-01 -5.9459937e-01 0.0000000e+00 
REACTION 3 26  float
0.0000000e+00 0.0000000e+00 0.0000000e+00 
0.0000000e+00 0.0000000e+00 0.0000000e+00 
0.0000000e+00 0.0000000e+00 0.0000000e+00 
0.0000000e+00 0.0000000e+00 0.0000000e+00 
0.0000000e+00 0.0000000e+00 0.0000000e+00 
0.0000000e+00 0.0000000e+00 0.0000000e+00 
0.0000000e+00 0.0000000e+00 0.0000000e+00 
0.0000000e+00 0.0000000e+00 0.0000000e+00 
0.0000000e+00 0.0000000e+00 0.0000000e+00 
0.0000000e+00 0.0000000e+00 0.0000000e+00 
0.0000000e+00 0.0000000e+00 0.0000000e+00 
0.0000000e+00 0.0000000e+00 0.0000000e+00 
0.0000000e+00 0.0000000e+00 0.0000000e+00 
0.0000000e+00 0.0000000e+00 0.0000000e+00 
0.0000000e+00 0.0000000e+00 0.0000000e+00 
0.0000000e+00 0.0000000e+00 0.0000000e+00 
0.0000000e+00 0.0000000e+00 0.0000000e+00 
0.0000000e+00 0.0000000e+00 0.0000000e+00 
0.0000000e+00 0.0000000e+00 0.0000000e+00 
0.0000000e+00 0.0000000e+00 0.0000000e+00 
0.0000000e+00 0.0000000e+00 0.0000000e+00 
0.0000000e+00 0.0000000e+00 0.0000000e+00 
0.0000000e+00 0.0000000e+00 0.0000000e+00 
0.0000000e+00 0.0000000e+00 0.0000000e+00 
0.0000000e+00 0.0000000e+00 0.0000000e+00 
0.0000000e+00 0.0000000e+00 0.0000000e+00 
VON_MISES_STRESS 1 26  float
6.5575557e+09
6.4051215e+09
6.2872556e+09
6.0116634e+09
5.7946527e+09
5.5051351e+09
5.2924462e+09
4.9698970e+09
4.7580145e+09
4.4009897e+09
4.1855296e+09
3.7915807e+09
3.5896870e+09
3.1579287e+09
2.9611699e+09
2.5093796e+09
2.3518787e+09
1.9202577e+09
1.7828809e+09
1.3739977e+09
1.2554685e+09
8.7338963e+08
7.7367174e+08
4.5574557e+08
4.3175466e+08
1.8953269e+08
CELL_DATA 24
FIELD FieldData 0
