# vtk DataFile Version 4.0
vtk output
ASCII
DATASET UNSTRUCTURED_GRID
POINTS 26 float
0.0000000e+00 1.0000000e-01 0.0000000e+00 
0.0000000e+00 0.0000000e+00 0.0000000e+00 
1.4766368e-01 1.0000000e-01 0.0000000e+00 
1.4883940e-01 0.0000000e+00 0.0000000e+00 
3.0036214e-01 1.0000000e-01 0.0000000e+00 
3.0422947e-01 0.0000000e+00 0.0000000e+00 
4.6008557e-01 1.0000000e-01 0.0000000e+00 
4.6697357e-01 0.0000000e+00 0.0000000e+00 
6.2771249e-01 1.0000000e-01 0.0000000e+00 
6.3798475e-01 0.0000000e+00 0.0000000e+00 
8.0424988e-01 1.0000000e-01 0.0000000e+00 
8.1830680e-01 0.0000000e+00 0.0000000e+00 
9.9085975e-01 1.0000000e-01 0.0000000e+00 
1.0091403e+00 0.0000000e+00 0.0000000e+00 
1.1816932e+00 1.0000000e-01 0.0000000e+00 
1.1957501e+00 0.0000000e+00 0.0000000e+00 
1.3620152e+00 1.0000000e-01 0.0000000e+00 
1.3722875e+00 0.0000000e+00 0.0000000e+00 
1.5330265e+00 1.0000000e-01 0.0000000e+00 
1.5399145e+00 0.0000000e+00 0.0000000e+00 
1.6957705e+00 1.0000000e-01 0.0000000e+00 
1.6996379e+00 0.0000000e+00 0.0000000e+00 
1.8511606e+00 1.0000000e-01 0.0000000e+00 
1.8523363e+00 0.0000000e+00 0.0000000e+00 
2.0000000e+00 1.0000000e-01 0.0000000e+00 
2.0000000e+00 0.0000000e+00 0.0000000e+00 

CELLS 24 96
3 25 24 23
3 0 1 2
3 1 3 2
3 2 3 4
3 24 22 23
3 23 22 21
3 3 5 4
3 4 5 6
3 22 20 21
3 21 20 19
3 5 7 6
3 6 7 8
3 20 18 19
3 19 18 17
3 7 9 8
3 8 9 10
3 18 16 17
3 17 16 15
3 9 11 10
3 10 11 12
3 16 14 15
3 15 14 13
3 11 13 12
3 12 13 14

CELL_TYPES 24
5
5
5
5
5
5
5
5
5
5
5
5
5
5
5
5
5
5
5
5
5
5
5
5
POINT_DATA 26
FIELD FieldData 3
DISPLACEMENT 3 26  float
0.0000000e+00 0.0000000e+00 0.0000000e+00 
0.0000000e+00 0.0000000e+00 0.0000000e+00 
6.9023320e-03 -1.4284429e-02 0.0000000e+00 
-1.0447535e-02 -1.2755638e-02 0.0000000e+00 
8.7581482e-03 -5.5255674e-02 0.0000000e+00 
-2.4439674e-02 -5.0794721e-02 0.0000000e+00 
1.5001385e-03 -1.2221567e-01 0.0000000e+00 
-4.5871172e-02 -1.1383957e-01 0.0000000e+00 
-1.8218694e-02 -2.1381001e-01 0.0000000e+00 
-7.8109324e-02 -2.0122072e-01 0.0000000e+00 
-5.2987304e-02 -3.2852969e-01 0.0000000e+00 
-1.2387104e-01 -3.1203854e-01 0.0000000e+00 
-1.0462691e-01 -4.6489814e-01 0.0000000e+00 
-1.8513553e-01 -4.4533119e-01 0.0000000e+00 
-1.7143229e-01 -6.1608225e-01 0.0000000e+00 
-2.5666308e-01 -5.8774960e-01 0.0000000e+00 
-2.4573907e-01 -7.6648372e-01 0.0000000e+00 
-3.3357468e-01 -7.3046374e-01 0.0000000e+00 
-3.2440409e-01 -9.1376454e-01 0.0000000e+00 
-4.1339600e-01 -8.7129009e-01 0.0000000e+00 
-4.0498197e-01 -1.0566815e+00 0.0000000e+00 
-4.9417576e-01 -1.0089853e+00 0.0000000e+00 
-4.8564851e-01 -1.1946414e+00 0.0000000e+00 
-5.7442504e-01 -1.1428839e+00 0.0000000e+00 
-5.6506479e-01 -1.3274194e+00 0.0000000e+00 
-6.5368623e-01 -1.2737461e+00 0.0000000e+00 
REACTION 3 26  float
0.0000000e+00 0.0000000e+00 0.0000000e+00 
0.0000000e+00 0.0000000e+00 0.0000000e+00 
0.0000000e+00 0.0000000e+00 0.0000000e+00 
0.0000000e+00 0.0000000e+00 0.0000000e+00 
0.0000000e+00 0.0000000e+00 0.0000000e+00 
0.0000000e+00 0.0000000e+00 0.0000000e+00 
0.0000000e+00 0.0000000e+00 0.0000000e+00 
0.0000000e+00 0.0000000e+00 0.0000000e+00 
0.0000000e+00 0.0000000e+00 0.0000000e+00 
0.0000000e+00 0.0000000e+00 0.0000000e+00 
0.0000000e+00 0.0000000e+00 0.0000000e+00 
0.0000000e+00 0.0000000e+00 0.0000000e+00 
0.0000000e+00 0.0000000e+00 0.0000000e+00 
0.0000000e+00 0.0000000e+00 0.0000000e+00 
0.0000000e+00 0.0000000e+00 0.0000000e+00 
0.0000000e+00 0.0000000e+00 0.0000000e+00 
0.0000000e+00 0.0000000e+00 0.0000000e+00 
0.0000000e+00 0.0000000e+00 0.0000000e+00 
0.0000000e+00 0.0000000e+00 0.0000000e+00 
0.0000000e+00 0.0000000e+00 0.0000000e+00 
0.0000000e+00 0.0000000e+00 0.0000000e+00 
0.0000000e+00 0.0000000e+00 0.0000000e+00 
0.0000000e+00 0.0000000e+00 0.0000000e+00 
0.0000000e+00 0.0000000e+00 0.0000000e+00 
0.0000000e+00 0.0000000e+00 0.0000000e+00 
0.0000000e+00 0.0000000e+00 0.0000000e+00 
VON_MISES_STRESS 1 26  float
1.7096735e+10
1.6908406e+10
1.6434781e+10
1.5614230e+10
1.4722363e+10
1.3747743e+10
1.3001735e+10
1.1910009e+10
1.1290626e+10
1.0118187e+10
9.6033577e+09
8.3773496e+09
7.9934746e+09
6.7476209e+09
6.4573926e+09
5.2220063e+09
5.0776955e+09
3.9374886e+09
3.8757496e+09
2.8166326e+09
2.8181161e+09
1.8236723e+09
1.8715436e+09
9.2755283e+08
9.6964922e+08
5.8888035e+06
CELL_DATA 24
FIELD FieldData 0
