# vtk DataFile Version 4.0
vtk output
ASCII
DATASET UNSTRUCTURED_GRID
POINTS 26 float
0.0000000e+00 1.0000000e-01 0.0000000e+00 
0.0000000e+00 0.0000000e+00 0.0000000e+00 
1.4766368e-01 1.0000000e-01 0.0000000e+00 
1.4883940e-01 0.0000000e+00 0.0000000e+00 
3.0036214e-01 1.0000000e-01 0.0000000e+00 
3.0422947e-01 0.0000000e+00 0.0000000e+00 
4.6008557e-01 1.0000000e-01 0.0000000e+00 
4.6697357e-01 0.0000000e+00 0.0000000e+00 
6.2771249e-01 1.0000000e-01 0.0000000e+00 
6.3798475e-01 0.0000000e+00 0.0000000e+00 
8.0424988e-01 1.0000000e-01 0.0000000e+00 
8.1830680e-01 0.0000000e+00 0.0000000e+00 
9.9085975e-01 1.0000000e-01 0.0000000e+00 
1.0091403e+00 0.0000000e+00 0.0000000e+00 
1.1816932e+00 1.0000000e-01 0.0000000e+00 
1.1957501e+00 0.0000000e+00 0.0000000e+00 
1.3620152e+00 1.0000000e-01 0.0000000e+00 
1.3722875e+00 0.0000000e+00 0.0000000e+00 
1.5330265e+00 1.0000000e-01 0.0000000e+00 
1.5399145e+00 0.0000000e+00 0.0000000e+00 
1.6957705e+00 1.0000000e-01 0.0000000e+00 
1.6996379e+00 0.0000000e+00 0.0000000e+00 
1.8511606e+00 1.0000000e-01 0.0000000e+00 
1.8523363e+00 0.0000000e+00 0.0000000e+00 
2.0000000e+00 1.0000000e-01 0.0000000e+00 
2.0000000e+00 0.0000000e+00 0.0000000e+00 

CELLS 24 96
3 25 24 23
3 0 1 2
3 1 3 2
3 2 3 4
3 24 22 23
3 23 22 21
3 3 5 4
3 4 5 6
3 22 20 21
3 21 20 19
3 5 7 6
3 6 7 8
3 20 18 19
3 19 18 17
3 7 9 8
3 8 9 10
3 18 16 17
3 17 16 15
3 9 11 10
3 10 11 12
3 16 14 15
3 15 14 13
3 11 13 12
3 12 13 14

CELL_TYPES 24
5
5
5
5
5
5
5
5
5
5
5
5
5
5
5
5
5
5
5
5
5
5
5
5
POINT_DATA 26
FIELD FieldData 3
DISPLACEMENT 3 26  float
0.0000000e+00 0.0000000e+00 0.0000000e+00 
0.0000000e+00 0.0000000e+00 0.0000000e+00 
7.5643891e-03 -1.6354194e-02 0.0000000e+00 
-1.2103150e-02 -1.4345469e-02 0.0000000e+00 
8.6827204e-03 -6.2887110e-02 0.0000000e+00 
-2.8648382e-02 -5.7011940e-02 0.0000000e+00 
-1.6666049e-03 -1.3810188e-01 0.0000000e+00 
-5.4421011e-02 -1.2712316e-01 0.0000000e+00 
-2.7311929e-02 -2.3972625e-01 0.0000000e+00 
-9.3357898e-02 -2.2332324e-01 0.0000000e+00 
-7.0984162e-02 -3.6544454e-01 0.0000000e+00 
-1.4845119e-01 -3.4405431e-01 0.0000000e+00 
-1.3442118e-01 -5.1316810e-01 0.0000000e+00 
-2.2173801e-01 -4.8782054e-01 0.0000000e+00 
-2.1519870e-01 -6.7530000e-01 0.0000000e+00 
-3.0672199e-01 -6.4008307e-01 0.0000000e+00 
-3.0397570e-01 -8.3530164e-01 0.0000000e+00 
-3.9753249e-01 -7.9158890e-01 0.0000000e+00 
-3.9717346e-01 -9.9106574e-01 0.0000000e+00 
-4.9135417e-01 -9.4030577e-01 0.0000000e+00 
-4.9211109e-01 -1.1416076e+00 0.0000000e+00 
-5.8604318e-01 -1.0851793e+00 0.0000000e+00 
-5.8685166e-01 -1.2865692e+00 0.0000000e+00 
-6.8001330e-01 -1.2257286e+00 0.0000000e+00 
-6.8000799e-01 -1.4259255e+00 0.0000000e+00 
-7.7291936e-01 -1.3629251e+00 0.0000000e+00 
REACTION 3 26  float
0.0000000e+00 0.0000000e+00 0.0000000e+00 
0.0000000e+00 0.0000000e+00 0.0000000e+00 
0.0000000e+00 0.0000000e+00 0.0000000e+00 
0.0000000e+00 0.0000000e+00 0.0000000e+00 
0.0000000e+00 0.0000000e+00 0.0000000e+00 
0.0000000e+00 0.0000000e+00 0.0000000e+00 
0.0000000e+00 0.0000000e+00 0.0000000e+00 
0.0000000e+00 0.0000000e+00 0.0000000e+00 
0.0000000e+00 0.0000000e+00 0.0000000e+00 
0.0000000e+00 0.0000000e+00 0.0000000e+00 
0.0000000e+00 0.0000000e+00 0.0000000e+00 
0.0000000e+00 0.0000000e+00 0.0000000e+00 
0.0000000e+00 0.0000000e+00 0.0000000e+00 
0.0000000e+00 0.0000000e+00 0.0000000e+00 
0.0000000e+00 0.0000000e+00 0.0000000e+00 
0.0000000e+00 0.0000000e+00 0.0000000e+00 
0.0000000e+00 0.0000000e+00 0.0000000e+00 
0.0000000e+00 0.0000000e+00 0.0000000e+00 
0.0000000e+00 0.0000000e+00 0.0000000e+00 
0.0000000e+00 0.0000000e+00 0.0000000e+00 
0.0000000e+00 0.0000000e+00 0.0000000e+00 
0.0000000e+00 0.0000000e+00 0.0000000e+00 
0.0000000e+00 0.0000000e+00 0.0000000e+00 
0.0000000e+00 0.0000000e+00 0.0000000e+00 
0.0000000e+00 0.0000000e+00 0.0000000e+00 
0.0000000e+00 0.0000000e+00 0.0000000e+00 
VON_MISES_STRESS 1 26  float
1.9394632e+10
1.9193932e+10
1.8606930e+10
1.7592742e+10
1.6489269e+10
1.5271063e+10
1.4383285e+10
1.3036240e+10
1.2334345e+10
1.0914114e+10
1.0365282e+10
8.9117215e+09
8.5366866e+09
7.0953841e+09
6.8464758e+09
5.4425083e+09
5.3663053e+09
4.0865244e+09
4.1087288e+09
2.9313951e+09
3.0265121e+09
1.9306267e+09
2.0774822e+09
1.0746478e+09
1.1851429e+09
1.3328554e+08
CELL_DATA 24
FIELD FieldData 0
