# vtk DataFile Version 4.0
vtk output
ASCII
DATASET UNSTRUCTURED_GRID
POINTS 26 float
0.0000000e+00 1.0000000e-01 0.0000000e+00 
0.0000000e+00 0.0000000e+00 0.0000000e+00 
1.4766368e-01 1.0000000e-01 0.0000000e+00 
1.4883940e-01 0.0000000e+00 0.0000000e+00 
3.0036214e-01 1.0000000e-01 0.0000000e+00 
3.0422947e-01 0.0000000e+00 0.0000000e+00 
4.6008557e-01 1.0000000e-01 0.0000000e+00 
4.6697357e-01 0.0000000e+00 0.0000000e+00 
6.2771249e-01 1.0000000e-01 0.0000000e+00 
6.3798475e-01 0.0000000e+00 0.0000000e+00 
8.0424988e-01 1.0000000e-01 0.0000000e+00 
8.1830680e-01 0.0000000e+00 0.0000000e+00 
9.9085975e-01 1.0000000e-01 0.0000000e+00 
1.0091403e+00 0.0000000e+00 0.0000000e+00 
1.1816932e+00 1.0000000e-01 0.0000000e+00 
1.1957501e+00 0.0000000e+00 0.0000000e+00 
1.3620152e+00 1.0000000e-01 0.0000000e+00 
1.3722875e+00 0.0000000e+00 0.0000000e+00 
1.5330265e+00 1.0000000e-01 0.0000000e+00 
1.5399145e+00 0.0000000e+00 0.0000000e+00 
1.6957705e+00 1.0000000e-01 0.0000000e+00 
1.6996379e+00 0.0000000e+00 0.0000000e+00 
1.8511606e+00 1.0000000e-01 0.0000000e+00 
1.8523363e+00 0.0000000e+00 0.0000000e+00 
2.0000000e+00 1.0000000e-01 0.0000000e+00 
2.0000000e+00 0.0000000e+00 0.0000000e+00 

CELLS 24 96
3 25 24 23
3 0 1 2
3 1 3 2
3 2 3 4
3 24 22 23
3 23 22 21
3 3 5 4
3 4 5 6
3 22 20 21
3 21 20 19
3 5 7 6
3 6 7 8
3 20 18 19
3 19 18 17
3 7 9 8
3 8 9 10
3 18 16 17
3 17 16 15
3 9 11 10
3 10 11 12
3 16 14 15
3 15 14 13
3 11 13 12
3 12 13 14

CELL_TYPES 24
5
5
5
5
5
5
5
5
5
5
5
5
5
5
5
5
5
5
5
5
5
5
5
5
POINT_DATA 26
FIELD FieldData 3
DISPLACEMENT 3 26  float
0.0000000e+00 0.0000000e+00 0.0000000e+00 
0.0000000e+00 0.0000000e+00 0.0000000e+00 
5.8135022e-03 -1.1335305e-02 0.0000000e+00 
-8.1303595e-03 -1.0397140e-02 0.0000000e+00 
8.3193965e-03 -4.4141307e-02 0.0000000e+00 
-1.8612826e-02 -4.1445382e-02 0.0000000e+00 
4.7851247e-03 -9.8477229e-02 0.0000000e+00 
-3.4104023e-02 -9.3437940e-02 0.0000000e+00 
-7.2589731e-03 -1.7398052e-01 0.0000000e+00 
-5.7035662e-02 -1.6643016e-01 0.0000000e+00 
-2.9904479e-02 -2.7011052e-01 0.0000000e+00 
-8.9507543e-02 -2.6028711e-01 0.0000000e+00 
-6.4785644e-02 -3.8621831e-01 0.0000000e+00 
-1.3316575e-01 -3.7473258e-01 0.0000000e+00 
-1.1101966e-01 -5.1679826e-01 0.0000000e+00 
-1.8446043e-01 -4.9852717e-01 0.0000000e+00 
-1.6339558e-01 -6.4825034e-01 0.0000000e+00 
-2.4000116e-01 -6.2384325e-01 0.0000000e+00 
-2.1956226e-01 -7.7812570e-01 0.0000000e+00 
-2.9793629e-01 -7.4845034e-01 0.0000000e+00 
-2.7759442e-01 -9.0494013e-01 0.0000000e+00 
-3.5673764e-01 -8.7093931e-01 0.0000000e+00 
-3.3599511e-01 -1.0278320e+00 0.0000000e+00 
-4.1519442e-01 -9.9044132e-01 0.0000000e+00 
-3.9363226e-01 -1.1463255e+00 0.0000000e+00 
-4.7280970e-01 -1.1073937e+00 0.0000000e+00 
REACTION 3 26  float
0.0000000e+00 0.0000000e+00 0.0000000e+00 
0.0000000e+00 0.0000000e+00 0.0000000e+00 
0.0000000e+00 0.0000000e+00 0.0000000e+00 
0.0000000e+00 0.0000000e+00 0.0000000e+00 
0.0000000e+00 0.0000000e+00 0.0000000e+00 
0.0000000e+00 0.0000000e+00 0.0000000e+00 
0.0000000e+00 0.0000000e+00 0.0000000e+00 
0.0000000e+00 0.0000000e+00 0.0000000e+00 
0.0000000e+00 0.0000000e+00 0.0000000e+00 
0.0000000e+00 0.0000000e+00 0.0000000e+00 
0.0000000e+00 0.0000000e+00 0.0000000e+00 
0.0000000e+00 0.0000000e+00 0.0000000e+00 
0.0000000e+00 0.0000000e+00 0.0000000e+00 
0.0000000e+00 0.0000000e+00 0.0000000e+00 
0.0000000e+00 0.0000000e+00 0.0000000e+00 
0.0000000e+00 0.0000000e+00 0.0000000e+00 
0.0000000e+00 0.0000000e+00 0.0000000e+00 
0.0000000e+00 0.0000000e+00 0.0000000e+00 
0.0000000e+00 0.0000000e+00 0.0000000e+00 
0.0000000e+00 0.0000000e+00 0.0000000e+00 
0.0000000e+00 0.0000000e+00 0.0000000e+00 
0.0000000e+00 0.0000000e+00 0.0000000e+00 
0.0000000e+00 0.0000000e+00 0.0000000e+00 
0.0000000e+00 0.0000000e+00 0.0000000e+00 
0.0000000e+00 0.0000000e+00 0.0000000e+00 
0.0000000e+00 0.0000000e+00 0.0000000e+00 
VON_MISES_STRESS 1 26  float
1.3745364e+10
1.3562751e+10
1.3229656e+10
1.2629054e+10
1.2003359e+10
1.1310226e+10
1.0758775e+10
9.9740303e+09
9.4860483e+09
8.6255217e+09
8.1881907e+09
7.2637635e+09
6.9053399e+09
5.9348644e+09
5.6300001e+09
4.6447754e+09
4.4473216e+09
3.5234317e+09
3.3856479e+09
2.5181317e+09
2.4284621e+09
1.6103130e+09
1.5579771e+09
8.2073958e+08
8.2870285e+08
1.4358613e+08
CELL_DATA 24
FIELD FieldData 0
