# vtk DataFile Version 4.0
vtk output
ASCII
DATASET UNSTRUCTURED_GRID
POINTS 26 float
0.0000000e+00 1.0000000e-01 0.0000000e+00 
0.0000000e+00 0.0000000e+00 0.0000000e+00 
1.4766368e-01 1.0000000e-01 0.0000000e+00 
1.4883940e-01 0.0000000e+00 0.0000000e+00 
3.0036214e-01 1.0000000e-01 0.0000000e+00 
3.0422947e-01 0.0000000e+00 0.0000000e+00 
4.6008557e-01 1.0000000e-01 0.0000000e+00 
4.6697357e-01 0.0000000e+00 0.0000000e+00 
6.2771249e-01 1.0000000e-01 0.0000000e+00 
6.3798475e-01 0.0000000e+00 0.0000000e+00 
8.0424988e-01 1.0000000e-01 0.0000000e+00 
8.1830680e-01 0.0000000e+00 0.0000000e+00 
9.9085975e-01 1.0000000e-01 0.0000000e+00 
1.0091403e+00 0.0000000e+00 0.0000000e+00 
1.1816932e+00 1.0000000e-01 0.0000000e+00 
1.1957501e+00 0.0000000e+00 0.0000000e+00 
1.3620152e+00 1.0000000e-01 0.0000000e+00 
1.3722875e+00 0.0000000e+00 0.0000000e+00 
1.5330265e+00 1.0000000e-01 0.0000000e+00 
1.5399145e+00 0.0000000e+00 0.0000000e+00 
1.6957705e+00 1.0000000e-01 0.0000000e+00 
1.6996379e+00 0.0000000e+00 0.0000000e+00 
1.8511606e+00 1.0000000e-01 0.0000000e+00 
1.8523363e+00 0.0000000e+00 0.0000000e+00 
2.0000000e+00 1.0000000e-01 0.0000000e+00 
2.0000000e+00 0.0000000e+00 0.0000000e+00 

CELLS 24 96
3 25 24 23
3 0 1 2
3 1 3 2
3 2 3 4
3 24 22 23
3 23 22 21
3 3 5 4
3 4 5 6
3 22 20 21
3 21 20 19
3 5 7 6
3 6 7 8
3 20 18 19
3 19 18 17
3 7 9 8
3 8 9 10
3 18 16 17
3 17 16 15
3 9 11 10
3 10 11 12
3 16 14 15
3 15 14 13
3 11 13 12
3 12 13 14

CELL_TYPES 24
5
5
5
5
5
5
5
5
5
5
5
5
5
5
5
5
5
5
5
5
5
5
5
5
POINT_DATA 26
FIELD FieldData 3
DISPLACEMENT 3 26  float
0.0000000e+00 0.0000000e+00 0.0000000e+00 
0.0000000e+00 0.0000000e+00 0.0000000e+00 
7.1299192e-03 -1.4967287e-02 0.0000000e+00 
-1.0991378e-02 -1.3285715e-02 0.0000000e+00 
8.7668682e-03 -5.7789899e-02 0.0000000e+00 
-2.5819456e-02 -5.2876461e-02 0.0000000e+00 
5.2728405e-04 -1.2753089e-01 0.0000000e+00 
-4.8672888e-02 -1.1831485e-01 0.0000000e+00 
-2.1110153e-02 -2.2255114e-01 0.0000000e+00 
-8.3117276e-02 -2.0871937e-01 0.0000000e+00 
-5.8802150e-02 -3.4108326e-01 0.0000000e+00 
-1.3197654e-01 -3.2298127e-01 0.0000000e+00 
-1.1436227e-01 -4.8144752e-01 0.0000000e+00 
-1.9726568e-01 -4.5996395e-01 0.0000000e+00 
-1.8585849e-01 -6.3654113e-01 0.0000000e+00 
-2.7333346e-01 -6.0589874e-01 0.0000000e+00 
-2.6506329e-01 -7.9041564e-01 0.0000000e+00 
-3.5496539e-01 -7.5179231e-01 0.0000000e+00 
-3.4867683e-01 -9.4079775e-01 0.0000000e+00 
-4.3956450e-01 -8.9550233e-01 0.0000000e+00 
-4.3416339e-01 -1.0865241e+00 0.0000000e+00 
-5.2510577e-01 -1.0358431e+00 0.0000000e+00 
-5.1965076e-01 -1.2270768e+00 0.0000000e+00 
-6.1005914e-01 -1.1722082e+00 0.0000000e+00 
-6.0377538e-01 -1.3622966e+00 0.0000000e+00 
-6.9399673e-01 -1.3054302e+00 0.0000000e+00 
REACTION 3 26  float
0.0000000e+00 0.0000000e+00 0.0000000e+00 
0.0000000e+00 0.0000000e+00 0.0000000e+00 
0.0000000e+00 0.0000000e+00 0.0000000e+00 
0.0000000e+00 0.0000000e+00 0.0000000e+00 
0.0000000e+00 0.0000000e+00 0.0000000e+00 
0.0000000e+00 0.0000000e+00 0.0000000e+00 
0.0000000e+00 0.0000000e+00 0.0000000e+00 
0.0000000e+00 0.0000000e+00 0.0000000e+00 
0.0000000e+00 0.0000000e+00 0.0000000e+00 
0.0000000e+00 0.0000000e+00 0.0000000e+00 
0.0000000e+00 0.0000000e+00 0.0000000e+00 
0.0000000e+00 0.0000000e+00 0.0000000e+00 
0.0000000e+00 0.0000000e+00 0.0000000e+00 
0.0000000e+00 0.0000000e+00 0.0000000e+00 
0.0000000e+00 0.0000000e+00 0.0000000e+00 
0.0000000e+00 0.0000000e+00 0.0000000e+00 
0.0000000e+00 0.0000000e+00 0.0000000e+00 
0.0000000e+00 0.0000000e+00 0.0000000e+00 
0.0000000e+00 0.0000000e+00 0.0000000e+00 
0.0000000e+00 0.0000000e+00 0.0000000e+00 
0.0000000e+00 0.0000000e+00 0.0000000e+00 
0.0000000e+00 0.0000000e+00 0.0000000e+00 
0.0000000e+00 0.0000000e+00 0.0000000e+00 
0.0000000e+00 0.0000000e+00 0.0000000e+00 
0.0000000e+00 0.0000000e+00 0.0000000e+00 
0.0000000e+00 0.0000000e+00 0.0000000e+00 
VON_MISES_STRESS 1 26  float
1.7859658e+10
1.7668274e+10
1.7158597e+10
1.6278077e+10
1.5318557e+10
1.4267984e+10
1.3475430e+10
1.2303148e+10
1.1655377e+10
1.0403731e+10
9.8755891e+09
8.5758106e+09
8.1922652e+09
6.8820009e+09
6.6025144e+09
5.3107963e+09
5.1861632e+09
3.9987510e+09
3.9619904e+09
2.8623260e+09
2.8921152e+09
1.8619180e+09
1.9400220e+09
9.7181594e+08
1.0343375e+09
3.6332380e+07
CELL_DATA 24
FIELD FieldData 0
