# vtk DataFile Version 4.0
vtk output
ASCII
DATASET UNSTRUCTURED_GRID
POINTS 26 float
0.0000000e+00 1.0000000e-01 0.0000000e+00 
0.0000000e+00 0.0000000e+00 0.0000000e+00 
1.4766368e-01 1.0000000e-01 0.0000000e+00 
1.4883940e-01 0.0000000e+00 0.0000000e+00 
3.0036214e-01 1.0000000e-01 0.0000000e+00 
3.0422947e-01 0.0000000e+00 0.0000000e+00 
4.6008557e-01 1.0000000e-01 0.0000000e+00 
4.6697357e-01 0.0000000e+00 0.0000000e+00 
6.2771249e-01 1.0000000e-01 0.0000000e+00 
6.3798475e-01 0.0000000e+00 0.0000000e+00 
8.0424988e-01 1.0000000e-01 0.0000000e+00 
8.1830680e-01 0.0000000e+00 0.0000000e+00 
9.9085975e-01 1.0000000e-01 0.0000000e+00 
1.0091403e+00 0.0000000e+00 0.0000000e+00 
1.1816932e+00 1.0000000e-01 0.0000000e+00 
1.1957501e+00 0.0000000e+00 0.0000000e+00 
1.3620152e+00 1.0000000e-01 0.0000000e+00 
1.3722875e+00 0.0000000e+00 0.0000000e+00 
1.5330265e+00 1.0000000e-01 0.0000000e+00 
1.5399145e+00 0.0000000e+00 0.0000000e+00 
1.6957705e+00 1.0000000e-01 0.0000000e+00 
1.6996379e+00 0.0000000e+00 0.0000000e+00 
1.8511606e+00 1.0000000e-01 0.0000000e+00 
1.8523363e+00 0.0000000e+00 0.0000000e+00 
2.0000000e+00 1.0000000e-01 0.0000000e+00 
2.0000000e+00 0.0000000e+00 0.0000000e+00 

CELLS 24 96
3 25 24 23
3 0 1 2
3 1 3 2
3 2 3 4
3 24 22 23
3 23 22 21
3 3 5 4
3 4 5 6
3 22 20 21
3 21 20 19
3 5 7 6
3 6 7 8
3 20 18 19
3 19 18 17
3 7 9 8
3 8 9 10
3 18 16 17
3 17 16 15
3 9 11 10
3 10 11 12
3 16 14 15
3 15 14 13
3 11 13 12
3 12 13 14

CELL_TYPES 24
5
5
5
5
5
5
5
5
5
5
5
5
5
5
5
5
5
5
5
5
5
5
5
5
POINT_DATA 26
FIELD FieldData 3
DISPLACEMENT 3 26  float
0.0000000e+00 0.0000000e+00 0.0000000e+00 
0.0000000e+00 0.0000000e+00 0.0000000e+00 
5.6389868e-03 -1.0902368e-02 0.0000000e+00 
-7.7951299e-03 -1.0040713e-02 0.0000000e+00 
8.1980648e-03 -4.2488795e-02 0.0000000e+00 
-1.7779587e-02 -4.0022753e-02 0.0000000e+00 
5.1309969e-03 -9.4893560e-02 0.0000000e+00 
-3.2436460e-02 -9.0295210e-02 0.0000000e+00 
-5.8927261e-03 -1.6786471e-01 0.0000000e+00 
-5.4054521e-02 -1.6099147e-01 0.0000000e+00 
-2.6869122e-02 -2.6097780e-01 0.0000000e+00 
-8.4626570e-02 -2.5206527e-01 0.0000000e+00 
-5.9377659e-02 -3.7369132e-01 0.0000000e+00 
-1.2572838e-01 -3.6332560e-01 0.0000000e+00 
-1.0263185e-01 -5.0071132e-01 0.0000000e+00 
-1.7404070e-01 -4.8388126e-01 0.0000000e+00 
-1.5177202e-01 -6.2879908e-01 0.0000000e+00 
-2.2638994e-01 -6.0609406e-01 0.0000000e+00 
-2.0457423e-01 -7.5551623e-01 0.0000000e+00 
-2.8102496e-01 -7.2774774e-01 0.0000000e+00 
-2.5920433e-01 -8.7936163e-01 0.0000000e+00 
-3.3649173e-01 -8.4742373e-01 0.0000000e+00 
-3.1422812e-01 -9.9944621e-01 0.0000000e+00 
-3.9163256e-01 -9.6423382e-01 0.0000000e+00 
-3.6855677e-01 -1.1152651e+00 0.0000000e+00 
-4.4595703e-01 -1.0785694e+00 0.0000000e+00 
REACTION 3 26  float
0.0000000e+00 0.0000000e+00 0.0000000e+00 
0.0000000e+00 0.0000000e+00 0.0000000e+00 
0.0000000e+00 0.0000000e+00 0.0000000e+00 
0.0000000e+00 0.0000000e+00 0.0000000e+00 
0.0000000e+00 0.0000000e+00 0.0000000e+00 
0.0000000e+00 0.0000000e+00 0.0000000e+00 
0.0000000e+00 0.0000000e+00 0.0000000e+00 
0.0000000e+00 0.0000000e+00 0.0000000e+00 
0.0000000e+00 0.0000000e+00 0.0000000e+00 
0.0000000e+00 0.0000000e+00 0.0000000e+00 
0.0000000e+00 0.0000000e+00 0.0000000e+00 
0.0000000e+00 0.0000000e+00 0.0000000e+00 
0.0000000e+00 0.0000000e+00 0.0000000e+00 
0.0000000e+00 0.0000000e+00 0.0000000e+00 
0.0000000e+00 0.0000000e+00 0.0000000e+00 
0.0000000e+00 0.0000000e+00 0.0000000e+00 
0.0000000e+00 0.0000000e+00 0.0000000e+00 
0.0000000e+00 0.0000000e+00 0.0000000e+00 
0.0000000e+00 0.0000000e+00 0.0000000e+00 
0.0000000e+00 0.0000000e+00 0.0000000e+00 
0.0000000e+00 0.0000000e+00 0.0000000e+00 
0.0000000e+00 0.0000000e+00 0.0000000e+00 
0.0000000e+00 0.0000000e+00 0.0000000e+00 
0.0000000e+00 0.0000000e+00 0.0000000e+00 
0.0000000e+00 0.0000000e+00 0.0000000e+00 
0.0000000e+00 0.0000000e+00 0.0000000e+00 
VON_MISES_STRESS 1 26  float
1.3245488e+10
1.3063250e+10
1.2748738e+10
1.2175801e+10
1.1585498e+10
1.0927882e+10
1.0403721e+10
9.6587203e+09
9.1907482e+09
8.3719025e+09
7.9482327e+09
7.0656015e+09
6.7142513e+09
5.7836262e+09
5.4807552e+09
4.5330360e+09
4.3320678e+09
3.4415168e+09
3.2969487e+09
2.4596677e+09
2.3609651e+09
1.5712762e+09
1.5085535e+09
8.0163987e+08
8.0527891e+08
1.5747182e+08
CELL_DATA 24
FIELD FieldData 0
