# vtk DataFile Version 4.0
vtk output
ASCII
DATASET UNSTRUCTURED_GRID
POINTS 26 float
0.0000000e+00 1.0000000e-01 0.0000000e+00 
0.0000000e+00 0.0000000e+00 0.0000000e+00 
1.4766368e-01 1.0000000e-01 0.0000000e+00 
1.4883940e-01 0.0000000e+00 0.0000000e+00 
3.0036214e-01 1.0000000e-01 0.0000000e+00 
3.0422947e-01 0.0000000e+00 0.0000000e+00 
4.6008557e-01 1.0000000e-01 0.0000000e+00 
4.6697357e-01 0.0000000e+00 0.0000000e+00 
6.2771249e-01 1.0000000e-01 0.0000000e+00 
6.3798475e-01 0.0000000e+00 0.0000000e+00 
8.0424988e-01 1.0000000e-01 0.0000000e+00 
8.1830680e-01 0.0000000e+00 0.0000000e+00 
9.9085975e-01 1.0000000e-01 0.0000000e+00 
1.0091403e+00 0.0000000e+00 0.0000000e+00 
1.1816932e+00 1.0000000e-01 0.0000000e+00 
1.1957501e+00 0.0000000e+00 0.0000000e+00 
1.3620152e+00 1.0000000e-01 0.0000000e+00 
1.3722875e+00 0.0000000e+00 0.0000000e+00 
1.5330265e+00 1.0000000e-01 0.0000000e+00 
1.5399145e+00 0.0000000e+00 0.0000000e+00 
1.6957705e+00 1.0000000e-01 0.0000000e+00 
1.6996379e+00 0.0000000e+00 0.0000000e+00 
1.8511606e+00 1.0000000e-01 0.0000000e+00 
1.8523363e+00 0.0000000e+00 0.0000000e+00 
2.0000000e+00 1.0000000e-01 0.0000000e+00 
2.0000000e+00 0.0000000e+00 0.0000000e+00 

CELLS 24 96
3 25 24 23
3 0 1 2
3 1 3 2
3 2 3 4
3 24 22 23
3 23 22 21
3 3 5 4
3 4 5 6
3 22 20 21
3 21 20 19
3 5 7 6
3 6 7 8
3 20 18 19
3 19 18 17
3 7 9 8
3 8 9 10
3 18 16 17
3 17 16 15
3 9 11 10
3 10 11 12
3 16 14 15
3 15 14 13
3 11 13 12
3 12 13 14

CELL_TYPES 24
5
5
5
5
5
5
5
5
5
5
5
5
5
5
5
5
5
5
5
5
5
5
5
5
POINT_DATA 26
FIELD FieldData 3
DISPLACEMENT 3 26  float
0.0000000e+00 0.0000000e+00 0.0000000e+00 
0.0000000e+00 0.0000000e+00 0.0000000e+00 
6.3355085e-03 -1.2690828e-02 0.0000000e+00 
-9.1885636e-03 -1.1495749e-02 0.0000000e+00 
8.6037563e-03 -4.9282301e-02 0.0000000e+00 
-2.1261130e-02 -4.5816030e-02 0.0000000e+00 
3.4693794e-03 -1.0953999e-01 0.0000000e+00 
-3.9433941e-02 -1.0303313e-01 0.0000000e+00 
-1.1960366e-02 -1.9269586e-01 0.0000000e+00 
-6.6580616e-02 -1.8290988e-01 0.0000000e+00 
-4.0042967e-02 -2.9779887e-01 0.0000000e+00 
-1.0511234e-01 -2.8499183e-01 0.0000000e+00 
-8.2541354e-02 -4.2383602e-01 0.0000000e+00 
-1.5686238e-01 -4.0870669e-01 0.0000000e+00 
-1.3822925e-01 -5.6466275e-01 0.0000000e+00 
-2.1752648e-01 -5.4178679e-01 0.0000000e+00 
-2.0077319e-01 -7.0566052e-01 0.0000000e+00 
-2.8302768e-01 -6.7588192e-01 0.0000000e+00 
-2.6743829e-01 -8.4439421e-01 0.0000000e+00 
-3.5121199e-01 -8.0875427e-01 0.0000000e+00 
-3.3603612e-01 -9.7946584e-01 0.0000000e+00 
-4.2033720e-01 -9.3905085e-01 0.0000000e+00 
-4.0489605e-01 -1.1101221e+00 0.0000000e+00 
-4.8904538e-01 -1.0659833e+00 0.0000000e+00 
-4.7277114e-01 -1.2359934e+00 0.0000000e+00 
-5.5683929e-01 -1.1901371e+00 0.0000000e+00 
REACTION 3 26  float
0.0000000e+00 0.0000000e+00 0.0000000e+00 
0.0000000e+00 0.0000000e+00 0.0000000e+00 
0.0000000e+00 0.0000000e+00 0.0000000e+00 
0.0000000e+00 0.0000000e+00 0.0000000e+00 
0.0000000e+00 0.0000000e+00 0.0000000e+00 
0.0000000e+00 0.0000000e+00 0.0000000e+00 
0.0000000e+00 0.0000000e+00 0.0000000e+00 
0.0000000e+00 0.0000000e+00 0.0000000e+00 
0.0000000e+00 0.0000000e+00 0.0000000e+00 
0.0000000e+00 0.0000000e+00 0.0000000e+00 
0.0000000e+00 0.0000000e+00 0.0000000e+00 
0.0000000e+00 0.0000000e+00 0.0000000e+00 
0.0000000e+00 0.0000000e+00 0.0000000e+00 
0.0000000e+00 0.0000000e+00 0.0000000e+00 
0.0000000e+00 0.0000000e+00 0.0000000e+00 
0.0000000e+00 0.0000000e+00 0.0000000e+00 
0.0000000e+00 0.0000000e+00 0.0000000e+00 
0.0000000e+00 0.0000000e+00 0.0000000e+00 
0.0000000e+00 0.0000000e+00 0.0000000e+00 
0.0000000e+00 0.0000000e+00 0.0000000e+00 
0.0000000e+00 0.0000000e+00 0.0000000e+00 
0.0000000e+00 0.0000000e+00 0.0000000e+00 
0.0000000e+00 0.0000000e+00 0.0000000e+00 
0.0000000e+00 0.0000000e+00 0.0000000e+00 
0.0000000e+00 0.0000000e+00 0.0000000e+00 
0.0000000e+00 0.0000000e+00 0.0000000e+00 
VON_MISES_STRESS 1 26  float
1.5297322e+10
1.5113156e+10
1.4718509e+10
1.4024127e+10
1.3281456e+10
1.2467916e+10
1.1828677e+10
1.0910914e+10
1.0361166e+10
9.3633894e+09
8.8867676e+09
7.8273096e+09
7.4520294e+09
6.3557130e+09
6.0513121e+09
4.9498409e+09
4.7704212e+09
3.7446766e+09
3.6353769e+09
2.6765755e+09
2.6224230e+09
1.7191740e+09
1.7065911e+09
8.7439712e+08
8.9731462e+08
8.9513744e+07
CELL_DATA 24
FIELD FieldData 0
