# vtk DataFile Version 4.0
vtk output
ASCII
DATASET UNSTRUCTURED_GRID
POINTS 26 float
0.0000000e+00 1.0000000e-01 0.0000000e+00 
0.0000000e+00 0.0000000e+00 0.0000000e+00 
1.4766368e-01 1.0000000e-01 0.0000000e+00 
1.4883940e-01 0.0000000e+00 0.0000000e+00 
3.0036214e-01 1.0000000e-01 0.0000000e+00 
3.0422947e-01 0.0000000e+00 0.0000000e+00 
4.6008557e-01 1.0000000e-01 0.0000000e+00 
4.6697357e-01 0.0000000e+00 0.0000000e+00 
6.2771249e-01 1.0000000e-01 0.0000000e+00 
6.3798475e-01 0.0000000e+00 0.0000000e+00 
8.0424988e-01 1.0000000e-01 0.0000000e+00 
8.1830680e-01 0.0000000e+00 0.0000000e+00 
9.9085975e-01 1.0000000e-01 0.0000000e+00 
1.0091403e+00 0.0000000e+00 0.0000000e+00 
1.1816932e+00 1.0000000e-01 0.0000000e+00 
1.1957501e+00 0.0000000e+00 0.0000000e+00 
1.3620152e+00 1.0000000e-01 0.0000000e+00 
1.3722875e+00 0.0000000e+00 0.0000000e+00 
1.5330265e+00 1.0000000e-01 0.0000000e+00 
1.5399145e+00 0.0000000e+00 0.0000000e+00 
1.6957705e+00 1.0000000e-01 0.0000000e+00 
1.6996379e+00 0.0000000e+00 0.0000000e+00 
1.8511606e+00 1.0000000e-01 0.0000000e+00 
1.8523363e+00 0.0000000e+00 0.0000000e+00 
2.0000000e+00 1.0000000e-01 0.0000000e+00 
2.0000000e+00 0.0000000e+00 0.0000000e+00 

CELLS 24 96
3 25 24 23
3 0 1 2
3 1 3 2
3 2 3 4
3 24 22 23
3 23 22 21
3 3 5 4
3 4 5 6
3 22 20 21
3 21 20 19
3 5 7 6
3 6 7 8
3 20 18 19
3 19 18 17
3 7 9 8
3 8 9 10
3 18 16 17
3 17 16 15
3 9 11 10
3 10 11 12
3 16 14 15
3 15 14 13
3 11 13 12
3 12 13 14

CELL_TYPES 24
5
5
5
5
5
5
5
5
5
5
5
5
5
5
5
5
5
5
5
5
5
5
5
5
POINT_DATA 26
FIELD FieldData 3
DISPLACEMENT 3 26  float
0.0000000e+00 0.0000000e+00 0.0000000e+00 
0.0000000e+00 0.0000000e+00 0.0000000e+00 
6.6109062e-03 -1.3447467e-02 0.0000000e+00 
-9.7844508e-03 -1.2098045e-02 0.0000000e+00 
8.7008290e-03 -5.2128468e-02 0.0000000e+00 
-2.2762444e-02 -4.8201162e-02 0.0000000e+00 
2.5887997e-03 -1.1560470e-01 0.0000000e+00 
-4.2470489e-02 -1.0822765e-01 0.0000000e+00 
-1.4840913e-02 -2.0284389e-01 0.0000000e+00 
-7.2021253e-02 -1.9174647e-01 0.0000000e+00 
-4.6067838e-02 -3.1263900e-01 0.0000000e+00 
-1.1398027e-01 -2.9810011e-01 0.0000000e+00 
-9.2895709e-02 -4.4375995e-01 0.0000000e+00 
-1.7026076e-01 -4.2653555e-01 0.0000000e+00 
-1.5388027e-01 -5.8972567e-01 0.0000000e+00 
-2.3611957e-01 -5.6425399e-01 0.0000000e+00 
-2.2205500e-01 -7.3542351e-01 0.0000000e+00 
-3.0709663e-01 -7.0265973e-01 0.0000000e+00 
-2.9448432e-01 -8.7845427e-01 0.0000000e+00 
-3.8088039e-01 -8.3953291e-01 0.0000000e+00 
-3.6885008e-01 -1.0174874e+00 0.0000000e+00 
-4.5562309e-01 -9.7356755e-01 0.0000000e+00 
-4.4340158e-01 -1.1518420e+00 0.0000000e+00 
-5.2989864e-01 -1.1040307e+00 0.0000000e+00 
-5.1684219e-01 -1.2812154e+00 0.0000000e+00 
-6.0322326e-01 -1.2315912e+00 0.0000000e+00 
REACTION 3 26  float
0.0000000e+00 0.0000000e+00 0.0000000e+00 
0.0000000e+00 0.0000000e+00 0.0000000e+00 
0.0000000e+00 0.0000000e+00 0.0000000e+00 
0.0000000e+00 0.0000000e+00 0.0000000e+00 
0.0000000e+00 0.0000000e+00 0.0000000e+00 
0.0000000e+00 0.0000000e+00 0.0000000e+00 
0.0000000e+00 0.0000000e+00 0.0000000e+00 
0.0000000e+00 0.0000000e+00 0.0000000e+00 
0.0000000e+00 0.0000000e+00 0.0000000e+00 
0.0000000e+00 0.0000000e+00 0.0000000e+00 
0.0000000e+00 0.0000000e+00 0.0000000e+00 
0.0000000e+00 0.0000000e+00 0.0000000e+00 
0.0000000e+00 0.0000000e+00 0.0000000e+00 
0.0000000e+00 0.0000000e+00 0.0000000e+00 
0.0000000e+00 0.0000000e+00 0.0000000e+00 
0.0000000e+00 0.0000000e+00 0.0000000e+00 
0.0000000e+00 0.0000000e+00 0.0000000e+00 
0.0000000e+00 0.0000000e+00 0.0000000e+00 
0.0000000e+00 0.0000000e+00 0.0000000e+00 
0.0000000e+00 0.0000000e+00 0.0000000e+00 
0.0000000e+00 0.0000000e+00 0.0000000e+00 
0.0000000e+00 0.0000000e+00 0.0000000e+00 
0.0000000e+00 0.0000000e+00 0.0000000e+00 
0.0000000e+00 0.0000000e+00 0.0000000e+00 
0.0000000e+00 0.0000000e+00 0.0000000e+00 
0.0000000e+00 0.0000000e+00 0.0000000e+00 
VON_MISES_STRESS 1 26  float
1.6155026e+10
1.5969324e+10
1.5538076e+10
1.4786094e+10
1.3974129e+10
1.3086862e+10
1.2397320e+10
1.1399389e+10
1.0816068e+10
9.7371566e+09
9.2412160e+09
8.1036964e+09
7.7227474e+09
6.5556019e+09
6.2560502e+09
5.0905902e+09
4.9259525e+09
3.8451236e+09
3.7565166e+09
2.7491103e+09
2.7195267e+09
1.7716937e+09
1.7860059e+09
9.0077459e+08
9.3269715e+08
5.2458912e+07
CELL_DATA 24
FIELD FieldData 0
