# vtk DataFile Version 4.0
vtk output
ASCII
DATASET UNSTRUCTURED_GRID
POINTS 26 float
0.0000000e+00 1.0000000e-01 0.0000000e+00 
0.0000000e+00 0.0000000e+00 0.0000000e+00 
1.4766368e-01 1.0000000e-01 0.0000000e+00 
1.4883940e-01 0.0000000e+00 0.0000000e+00 
3.0036214e-01 1.0000000e-01 0.0000000e+00 
3.0422947e-01 0.0000000e+00 0.0000000e+00 
4.6008557e-01 1.0000000e-01 0.0000000e+00 
4.6697357e-01 0.0000000e+00 0.0000000e+00 
6.2771249e-01 1.0000000e-01 0.0000000e+00 
6.3798475e-01 0.0000000e+00 0.0000000e+00 
8.0424988e-01 1.0000000e-01 0.0000000e+00 
8.1830680e-01 0.0000000e+00 0.0000000e+00 
9.9085975e-01 1.0000000e-01 0.0000000e+00 
1.0091403e+00 0.0000000e+00 0.0000000e+00 
1.1816932e+00 1.0000000e-01 0.0000000e+00 
1.1957501e+00 0.0000000e+00 0.0000000e+00 
1.3620152e+00 1.0000000e-01 0.0000000e+00 
1.3722875e+00 0.0000000e+00 0.0000000e+00 
1.5330265e+00 1.0000000e-01 0.0000000e+00 
1.5399145e+00 0.0000000e+00 0.0000000e+00 
1.6957705e+00 1.0000000e-01 0.0000000e+00 
1.6996379e+00 0.0000000e+00 0.0000000e+00 
1.8511606e+00 1.0000000e-01 0.0000000e+00 
1.8523363e+00 0.0000000e+00 0.0000000e+00 
2.0000000e+00 1.0000000e-01 0.0000000e+00 
2.0000000e+00 0.0000000e+00 0.0000000e+00 

CELLS 24 96
3 25 24 23
3 0 1 2
3 1 3 2
3 2 3 4
3 24 22 23
3 23 22 21
3 3 5 4
3 4 5 6
3 22 20 21
3 21 20 19
3 5 7 6
3 6 7 8
3 20 18 19
3 19 18 17
3 7 9 8
3 8 9 10
3 18 16 17
3 17 16 15
3 9 11 10
3 10 11 12
3 16 14 15
3 15 14 13
3 11 13 12
3 12 13 14

CELL_TYPES 24
5
5
5
5
5
5
5
5
5
5
5
5
5
5
5
5
5
5
5
5
5
5
5
5
POINT_DATA 26
FIELD FieldData 3
DISPLACEMENT 3 26  float
0.0000000e+00 0.0000000e+00 0.0000000e+00 
0.0000000e+00 0.0000000e+00 0.0000000e+00 
7.5334893e-03 -1.6251527e-02 0.0000000e+00 
-1.2020538e-02 -1.4267765e-02 0.0000000e+00 
8.6935200e-03 -6.2512137e-02 0.0000000e+00 
-2.8437890e-02 -5.6709986e-02 0.0000000e+00 
-1.4946875e-03 -1.3732983e-01 0.0000000e+00 
-5.3993352e-02 -1.2648386e-01 0.0000000e+00 
-2.6839105e-02 -2.3848155e-01 0.0000000e+00 
-9.2597902e-02 -2.2227043e-01 0.0000000e+00 
-7.0068143e-02 -3.6369300e-01 0.0000000e+00 
-1.4723355e-01 -3.4254599e-01 0.0000000e+00 
-1.3292797e-01 -5.1090533e-01 0.0000000e+00 
-2.1993807e-01 -4.8584124e-01 0.0000000e+00 
-2.1303198e-01 -6.7255557e-01 0.0000000e+00 
-3.0427784e-01 -6.3767064e-01 0.0000000e+00 
-3.0111983e-01 -8.3214355e-01 0.0000000e+00 
-3.9442948e-01 -7.8879720e-01 0.0000000e+00 
-3.9363155e-01 -9.8754829e-01 0.0000000e+00 
-4.8759225e-01 -9.3717951e-01 0.0000000e+00 
-4.8789519e-01 -1.1377714e+00 0.0000000e+00 
-5.8162975e-01 -1.0817529e+00 0.0000000e+00 
-5.8197719e-01 -1.2824427e+00 0.0000000e+00 
-6.7495865e-01 -1.2220271e+00 0.0000000e+00 
-6.7449093e-01 -1.4215271e+00 0.0000000e+00 
-7.6722664e-01 -1.3589636e+00 0.0000000e+00 
REACTION 3 26  float
0.0000000e+00 0.0000000e+00 0.0000000e+00 
0.0000000e+00 0.0000000e+00 0.0000000e+00 
0.0000000e+00 0.0000000e+00 0.0000000e+00 
0.0000000e+00 0.0000000e+00 0.0000000e+00 
0.0000000e+00 0.0000000e+00 0.0000000e+00 
0.0000000e+00 0.0000000e+00 0.0000000e+00 
0.0000000e+00 0.0000000e+00 0.0000000e+00 
0.0000000e+00 0.0000000e+00 0.0000000e+00 
0.0000000e+00 0.0000000e+00 0.0000000e+00 
0.0000000e+00 0.0000000e+00 0.0000000e+00 
0.0000000e+00 0.0000000e+00 0.0000000e+00 
0.0000000e+00 0.0000000e+00 0.0000000e+00 
0.0000000e+00 0.0000000e+00 0.0000000e+00 
0.0000000e+00 0.0000000e+00 0.0000000e+00 
0.0000000e+00 0.0000000e+00 0.0000000e+00 
0.0000000e+00 0.0000000e+00 0.0000000e+00 
0.0000000e+00 0.0000000e+00 0.0000000e+00 
0.0000000e+00 0.0000000e+00 0.0000000e+00 
0.0000000e+00 0.0000000e+00 0.0000000e+00 
0.0000000e+00 0.0000000e+00 0.0000000e+00 
0.0000000e+00 0.0000000e+00 0.0000000e+00 
0.0000000e+00 0.0000000e+00 0.0000000e+00 
0.0000000e+00 0.0000000e+00 0.0000000e+00 
0.0000000e+00 0.0000000e+00 0.0000000e+00 
0.0000000e+00 0.0000000e+00 0.0000000e+00 
0.0000000e+00 0.0000000e+00 0.0000000e+00 
VON_MISES_STRESS 1 26  float
1.9281660e+10
1.9081808e+10
1.8500719e+10
1.7496992e+10
1.6404466e+10
1.5199290e+10
1.4318575e+10
1.2984973e+10
1.2286902e+10
1.0879492e+10
1.0331886e+10
8.8898755e+09
8.5138427e+09
7.0822400e+09
6.8306652e+09
5.4349030e+09
5.3547310e+09
4.0816251e+09
4.0990953e+09
2.9272914e+09
3.0172257e+09
1.9258643e+09
2.0673135e+09
1.0667556e+09
1.1736271e+09
1.2561062e+08
CELL_DATA 24
FIELD FieldData 0
