# vtk DataFile Version 4.0
vtk output
ASCII
DATASET UNSTRUCTURED_GRID
POINTS 26 float
0.0000000e+00 1.0000000e-01 0.0000000e+00 
0.0000000e+00 0.0000000e+00 0.0000000e+00 
1.4766368e-01 1.0000000e-01 0.0000000e+00 
1.4883940e-01 0.0000000e+00 0.0000000e+00 
3.0036214e-01 1.0000000e-01 0.0000000e+00 
3.0422947e-01 0.0000000e+00 0.0000000e+00 
4.6008557e-01 1.0000000e-01 0.0000000e+00 
4.6697357e-01 0.0000000e+00 0.0000000e+00 
6.2771249e-01 1.0000000e-01 0.0000000e+00 
6.3798475e-01 0.0000000e+00 0.0000000e+00 
8.0424988e-01 1.0000000e-01 0.0000000e+00 
8.1830680e-01 0.0000000e+00 0.0000000e+00 
9.9085975e-01 1.0000000e-01 0.0000000e+00 
1.0091403e+00 0.0000000e+00 0.0000000e+00 
1.1816932e+00 1.0000000e-01 0.0000000e+00 
1.1957501e+00 0.0000000e+00 0.0000000e+00 
1.3620152e+00 1.0000000e-01 0.0000000e+00 
1.3722875e+00 0.0000000e+00 0.0000000e+00 
1.5330265e+00 1.0000000e-01 0.0000000e+00 
1.5399145e+00 0.0000000e+00 0.0000000e+00 
1.6957705e+00 1.0000000e-01 0.0000000e+00 
1.6996379e+00 0.0000000e+00 0.0000000e+00 
1.8511606e+00 1.0000000e-01 0.0000000e+00 
1.8523363e+00 0.0000000e+00 0.0000000e+00 
2.0000000e+00 1.0000000e-01 0.0000000e+00 
2.0000000e+00 0.0000000e+00 0.0000000e+00 

CELLS 24 96
3 25 24 23
3 0 1 2
3 1 3 2
3 2 3 4
3 24 22 23
3 23 22 21
3 3 5 4
3 4 5 6
3 22 20 21
3 21 20 19
3 5 7 6
3 6 7 8
3 20 18 19
3 19 18 17
3 7 9 8
3 8 9 10
3 18 16 17
3 17 16 15
3 9 11 10
3 10 11 12
3 16 14 15
3 15 14 13
3 11 13 12
3 12 13 14

CELL_TYPES 24
5
5
5
5
5
5
5
5
5
5
5
5
5
5
5
5
5
5
5
5
5
5
5
5
POINT_DATA 26
FIELD FieldData 3
DISPLACEMENT 3 26  float
0.0000000e+00 0.0000000e+00 0.0000000e+00 
0.0000000e+00 0.0000000e+00 0.0000000e+00 
5.1938333e-03 -9.8380288e-03 0.0000000e+00 
-6.9772047e-03 -9.1524748e-03 0.0000000e+00 
7.8356741e-03 -3.8406625e-02 0.0000000e+00 
-1.5760478e-02 -3.6469944e-02 0.0000000e+00 
5.8205221e-03 -8.5987955e-02 0.0000000e+00 
-2.8420283e-02 -8.2409382e-02 0.0000000e+00 
-2.8374749e-03 -1.5256244e-01 0.0000000e+00 
-4.6894953e-02 -1.4726368e-01 0.0000000e+00 
-1.9883184e-02 -2.3795785e-01 0.0000000e+00 
-7.2903678e-02 -2.3117439e-01 0.0000000e+00 
-4.6737555e-02 -3.4187299e-01 0.0000000e+00 
-1.0783202e-01 -3.3413672e-01 0.0000000e+00 
-8.2822673e-02 -4.5954564e-01 0.0000000e+00 
-1.4890260e-01 -4.4615352e-01 0.0000000e+00 
-1.2411792e-01 -5.7869780e-01 0.0000000e+00 
-1.9346379e-01 -5.6009883e-01 0.0000000e+00 
-1.6871671e-01 -6.9694906e-01 0.0000000e+00 
-2.4001607e-01 -6.7381650e-01 0.0000000e+00 
-2.1501967e-01 -8.1278116e-01 0.0000000e+00 
-2.8729659e-01 -7.8588569e-01 0.0000000e+00 
-2.6175946e-01 -9.2525560e-01 0.0000000e+00 
-3.3428848e-01 -8.9538568e-01 0.0000000e+00 
-3.0796507e-01 -1.0338085e+00 0.0000000e+00 
-3.8052982e-01 -1.0026002e+00 0.0000000e+00 
REACTION 3 26  float
0.0000000e+00 0.0000000e+00 0.0000000e+00 
0.0000000e+00 0.0000000e+00 0.0000000e+00 
0.0000000e+00 0.0000000e+00 0.0000000e+00 
0.0000000e+00 0.0000000e+00 0.0000000e+00 
0.0000000e+00 0.0000000e+00 0.0000000e+00 
0.0000000e+00 0.0000000e+00 0.0000000e+00 
0.0000000e+00 0.0000000e+00 0.0000000e+00 
0.0000000e+00 0.0000000e+00 0.0000000e+00 
0.0000000e+00 0.0000000e+00 0.0000000e+00 
0.0000000e+00 0.0000000e+00 0.0000000e+00 
0.0000000e+00 0.0000000e+00 0.0000000e+00 
0.0000000e+00 0.0000000e+00 0.0000000e+00 
0.0000000e+00 0.0000000e+00 0.0000000e+00 
0.0000000e+00 0.0000000e+00 0.0000000e+00 
0.0000000e+00 0.0000000e+00 0.0000000e+00 
0.0000000e+00 0.0000000e+00 0.0000000e+00 
0.0000000e+00 0.0000000e+00 0.0000000e+00 
0.0000000e+00 0.0000000e+00 0.0000000e+00 
0.0000000e+00 0.0000000e+00 0.0000000e+00 
0.0000000e+00 0.0000000e+00 0.0000000e+00 
0.0000000e+00 0.0000000e+00 0.0000000e+00 
0.0000000e+00 0.0000000e+00 0.0000000e+00 
0.0000000e+00 0.0000000e+00 0.0000000e+00 
0.0000000e+00 0.0000000e+00 0.0000000e+00 
0.0000000e+00 0.0000000e+00 0.0000000e+00 
0.0000000e+00 0.0000000e+00 0.0000000e+00 
VON_MISES_STRESS 1 26  float
1.2007878e+10
1.1826821e+10
1.1555811e+10
1.1046834e+10
1.0539444e+10
9.9636705e+09
9.5048233e+09
8.8522762e+09
8.4337321e+09
7.7130962e+09
7.3249454e+09
6.5423237e+09
6.2115333e+09
5.3780654e+09
5.0842737e+09
4.2293942e+09
4.0242711e+09
3.2171976e+09
3.0606428e+09
2.2997422e+09
2.1835679e+09
1.4661670e+09
1.3826657e+09
7.5026707e+08
7.4443616e+08
1.8457646e+08
CELL_DATA 24
FIELD FieldData 0
