# vtk DataFile Version 4.0
vtk output
ASCII
DATASET UNSTRUCTURED_GRID
POINTS 26 float
0.0000000e+00 1.0000000e-01 0.0000000e+00 
0.0000000e+00 0.0000000e+00 0.0000000e+00 
1.4766368e-01 1.0000000e-01 0.0000000e+00 
1.4883940e-01 0.0000000e+00 0.0000000e+00 
3.0036214e-01 1.0000000e-01 0.0000000e+00 
3.0422947e-01 0.0000000e+00 0.0000000e+00 
4.6008557e-01 1.0000000e-01 0.0000000e+00 
4.6697357e-01 0.0000000e+00 0.0000000e+00 
6.2771249e-01 1.0000000e-01 0.0000000e+00 
6.3798475e-01 0.0000000e+00 0.0000000e+00 
8.0424988e-01 1.0000000e-01 0.0000000e+00 
8.1830680e-01 0.0000000e+00 0.0000000e+00 
9.9085975e-01 1.0000000e-01 0.0000000e+00 
1.0091403e+00 0.0000000e+00 0.0000000e+00 
1.1816932e+00 1.0000000e-01 0.0000000e+00 
1.1957501e+00 0.0000000e+00 0.0000000e+00 
1.3620152e+00 1.0000000e-01 0.0000000e+00 
1.3722875e+00 0.0000000e+00 0.0000000e+00 
1.5330265e+00 1.0000000e-01 0.0000000e+00 
1.5399145e+00 0.0000000e+00 0.0000000e+00 
1.6957705e+00 1.0000000e-01 0.0000000e+00 
1.6996379e+00 0.0000000e+00 0.0000000e+00 
1.8511606e+00 1.0000000e-01 0.0000000e+00 
1.8523363e+00 0.0000000e+00 0.0000000e+00 
2.0000000e+00 1.0000000e-01 0.0000000e+00 
2.0000000e+00 0.0000000e+00 0.0000000e+00 

CELLS 24 96
3 25 24 23
3 0 1 2
3 1 3 2
3 2 3 4
3 24 22 23
3 23 22 21
3 3 5 4
3 4 5 6
3 22 20 21
3 21 20 19
3 5 7 6
3 6 7 8
3 20 18 19
3 19 18 17
3 7 9 8
3 8 9 10
3 18 16 17
3 17 16 15
3 9 11 10
3 10 11 12
3 16 14 15
3 15 14 13
3 11 13 12
3 12 13 14

CELL_TYPES 24
5
5
5
5
5
5
5
5
5
5
5
5
5
5
5
5
5
5
5
5
5
5
5
5
POINT_DATA 26
FIELD FieldData 3
DISPLACEMENT 3 26  float
0.0000000e+00 0.0000000e+00 0.0000000e+00 
0.0000000e+00 0.0000000e+00 0.0000000e+00 
2.3299658e-03 -3.9741024e-03 0.0000000e+00 
-2.6695137e-03 -3.9177402e-03 0.0000000e+00 
4.1487748e-03 -1.5573062e-02 0.0000000e+00 
-5.6168875e-03 -1.5492349e-02 0.0000000e+00 
5.1215198e-03 -3.5143439e-02 0.0000000e+00 
-9.2063993e-03 -3.5131082e-02 0.0000000e+00 
4.8600645e-03 -6.3024029e-02 0.0000000e+00 
-1.3791963e-02 -6.3236214e-02 0.0000000e+00 
2.9877999e-03 -9.9527709e-02 0.0000000e+00 
-1.9702824e-02 -1.0018522e-01 0.0000000e+00 
-8.3834055e-04 -1.4490750e-01 0.0000000e+00 
-2.7213063e-02 -1.4628634e-01 0.0000000e+00 
-6.5740650e-03 -1.9733658e-01 0.0000000e+00 
-3.5732433e-02 -1.9722471e-01 0.0000000e+00 
-1.3617909e-02 -2.5137553e-01 0.0000000e+00 
-4.4821694e-02 -2.4974069e-01 0.0000000e+00 
-2.1579886e-02 -3.0575880e-01 0.0000000e+00 
-5.4197837e-02 -3.0267924e-01 0.0000000e+00 
-3.0106787e-02 -3.5956913e-01 0.0000000e+00 
-6.3610397e-02 -3.5519555e-01 0.0000000e+00 
-3.8902484e-02 -4.1215667e-01 0.0000000e+00 
-7.2850414e-02 -4.0667969e-01 0.0000000e+00 
-4.7732349e-02 -4.6307009e-01 0.0000000e+00 
-8.1790932e-02 -4.5708191e-01 0.0000000e+00 
REACTION 3 26  float
0.0000000e+00 0.0000000e+00 0.0000000e+00 
0.0000000e+00 0.0000000e+00 0.0000000e+00 
0.0000000e+00 0.0000000e+00 0.0000000e+00 
0.0000000e+00 0.0000000e+00 0.0000000e+00 
0.0000000e+00 0.0000000e+00 0.0000000e+00 
0.0000000e+00 0.0000000e+00 0.0000000e+00 
0.0000000e+00 0.0000000e+00 0.0000000e+00 
0.0000000e+00 0.0000000e+00 0.0000000e+00 
0.0000000e+00 0.0000000e+00 0.0000000e+00 
0.0000000e+00 0.0000000e+00 0.0000000e+00 
0.0000000e+00 0.0000000e+00 0.0000000e+00 
0.0000000e+00 0.0000000e+00 0.0000000e+00 
0.0000000e+00 0.0000000e+00 0.0000000e+00 
0.0000000e+00 0.0000000e+00 0.0000000e+00 
0.0000000e+00 0.0000000e+00 0.0000000e+00 
0.0000000e+00 0.0000000e+00 0.0000000e+00 
0.0000000e+00 0.0000000e+00 0.0000000e+00 
0.0000000e+00 0.0000000e+00 0.0000000e+00 
0.0000000e+00 0.0000000e+00 0.0000000e+00 
0.0000000e+00 0.0000000e+00 0.0000000e+00 
0.0000000e+00 0.0000000e+00 0.0000000e+00 
0.0000000e+00 0.0000000e+00 0.0000000e+00 
0.0000000e+00 0.0000000e+00 0.0000000e+00 
0.0000000e+00 0.0000000e+00 0.0000000e+00 
0.0000000e+00 0.0000000e+00 0.0000000e+00 
0.0000000e+00 0.0000000e+00 0.0000000e+00 
VON_MISES_STRESS 1 26  float
4.9694490e+09
4.8388762e+09
4.7553121e+09
4.5422996e+09
4.3893432e+09
4.1703818e+09
4.0167135e+09
3.7751880e+09
3.6182917e+09
3.3522711e+09
3.1889600e+09
2.8957117e+09
2.7393198e+09
2.4169326e+09
2.2616765e+09
1.9237286e+09
1.7963510e+09
1.4733548e+09
1.3599249e+09
1.0542748e+09
9.5446522e+08
6.7019539e+08
5.8514080e+08
3.5220118e+08
3.2998778e+08
1.6013904e+08
CELL_DATA 24
FIELD FieldData 0
