# vtk DataFile Version 4.0
vtk output
ASCII
DATASET UNSTRUCTURED_GRID
POINTS 26 float
0.0000000e+00 1.0000000e-01 0.0000000e+00 
0.0000000e+00 0.0000000e+00 0.0000000e+00 
1.4766368e-01 1.0000000e-01 0.0000000e+00 
1.4883940e-01 0.0000000e+00 0.0000000e+00 
3.0036214e-01 1.0000000e-01 0.0000000e+00 
3.0422947e-01 0.0000000e+00 0.0000000e+00 
4.6008557e-01 1.0000000e-01 0.0000000e+00 
4.6697357e-01 0.0000000e+00 0.0000000e+00 
6.2771249e-01 1.0000000e-01 0.0000000e+00 
6.3798475e-01 0.0000000e+00 0.0000000e+00 
8.0424988e-01 1.0000000e-01 0.0000000e+00 
8.1830680e-01 0.0000000e+00 0.0000000e+00 
9.9085975e-01 1.0000000e-01 0.0000000e+00 
1.0091403e+00 0.0000000e+00 0.0000000e+00 
1.1816932e+00 1.0000000e-01 0.0000000e+00 
1.1957501e+00 0.0000000e+00 0.0000000e+00 
1.3620152e+00 1.0000000e-01 0.0000000e+00 
1.3722875e+00 0.0000000e+00 0.0000000e+00 
1.5330265e+00 1.0000000e-01 0.0000000e+00 
1.5399145e+00 0.0000000e+00 0.0000000e+00 
1.6957705e+00 1.0000000e-01 0.0000000e+00 
1.6996379e+00 0.0000000e+00 0.0000000e+00 
1.8511606e+00 1.0000000e-01 0.0000000e+00 
1.8523363e+00 0.0000000e+00 0.0000000e+00 
2.0000000e+00 1.0000000e-01 0.0000000e+00 
2.0000000e+00 0.0000000e+00 0.0000000e+00 

CELLS 24 96
3 25 24 23
3 0 1 2
3 1 3 2
3 2 3 4
3 24 22 23
3 23 22 21
3 3 5 4
3 4 5 6
3 22 20 21
3 21 20 19
3 5 7 6
3 6 7 8
3 20 18 19
3 19 18 17
3 7 9 8
3 8 9 10
3 18 16 17
3 17 16 15
3 9 11 10
3 10 11 12
3 16 14 15
3 15 14 13
3 11 13 12
3 12 13 14

CELL_TYPES 24
5
5
5
5
5
5
5
5
5
5
5
5
5
5
5
5
5
5
5
5
5
5
5
5
POINT_DATA 26
FIELD FieldData 3
DISPLACEMENT 3 26  float
0.0000000e+00 0.0000000e+00 0.0000000e+00 
0.0000000e+00 0.0000000e+00 0.0000000e+00 
4.6093585e-03 -8.5169943e-03 0.0000000e+00 
-5.9754527e-03 -8.0252066e-03 0.0000000e+00 
7.2569801e-03 -3.3305630e-02 0.0000000e+00 
-1.3319327e-02 -3.1950451e-02 0.0000000e+00 
6.3446867e-03 -7.4763797e-02 0.0000000e+00 
-2.3624070e-02 -7.2310641e-02 0.0000000e+00 
3.0814603e-04 -1.3308294e-01 0.0000000e+00 
-3.8404606e-02 -1.2953259e-01 0.0000000e+00 
-1.2266133e-02 -2.0833333e-01 0.0000000e+00 
-5.9030686e-02 -2.0392828e-01 0.0000000e+00 
-3.2565802e-02 -3.0045781e-01 0.0000000e+00 
-8.6627461e-02 -2.9567176e-01 0.0000000e+00 
-6.0217123e-02 -4.0536648e-01 0.0000000e+00 
-1.1903466e-01 -3.9594465e-01 0.0000000e+00 
-9.2173629e-02 -5.1211131e-01 0.0000000e+00 
-1.5421470e-01 -4.9834609e-01 0.0000000e+00 
-1.2692155e-01 -6.1844873e-01 0.0000000e+00 
-1.9098118e-01 -6.0084748e-01 0.0000000e+00 
-1.6316541e-01 -7.2289199e-01 0.0000000e+00 
-2.2831896e-01 -7.0206892e-01 0.0000000e+00 
-1.9986287e-01 -8.2448101e-01 0.0000000e+00 
-2.6540056e-01 -8.0108392e-01 0.0000000e+00 
-2.3620716e-01 -9.2260885e-01 0.0000000e+00 
-3.0182105e-01 -8.9805770e-01 0.0000000e+00 
REACTION 3 26  float
0.0000000e+00 0.0000000e+00 0.0000000e+00 
0.0000000e+00 0.0000000e+00 0.0000000e+00 
0.0000000e+00 0.0000000e+00 0.0000000e+00 
0.0000000e+00 0.0000000e+00 0.0000000e+00 
0.0000000e+00 0.0000000e+00 0.0000000e+00 
0.0000000e+00 0.0000000e+00 0.0000000e+00 
0.0000000e+00 0.0000000e+00 0.0000000e+00 
0.0000000e+00 0.0000000e+00 0.0000000e+00 
0.0000000e+00 0.0000000e+00 0.0000000e+00 
0.0000000e+00 0.0000000e+00 0.0000000e+00 
0.0000000e+00 0.0000000e+00 0.0000000e+00 
0.0000000e+00 0.0000000e+00 0.0000000e+00 
0.0000000e+00 0.0000000e+00 0.0000000e+00 
0.0000000e+00 0.0000000e+00 0.0000000e+00 
0.0000000e+00 0.0000000e+00 0.0000000e+00 
0.0000000e+00 0.0000000e+00 0.0000000e+00 
0.0000000e+00 0.0000000e+00 0.0000000e+00 
0.0000000e+00 0.0000000e+00 0.0000000e+00 
0.0000000e+00 0.0000000e+00 0.0000000e+00 
0.0000000e+00 0.0000000e+00 0.0000000e+00 
0.0000000e+00 0.0000000e+00 0.0000000e+00 
0.0000000e+00 0.0000000e+00 0.0000000e+00 
0.0000000e+00 0.0000000e+00 0.0000000e+00 
0.0000000e+00 0.0000000e+00 0.0000000e+00 
0.0000000e+00 0.0000000e+00 0.0000000e+00 
0.0000000e+00 0.0000000e+00 0.0000000e+00 
VON_MISES_STRESS 1 26  float
1.0454542e+10
1.0276538e+10
1.0055295e+10
9.6190372e+09
9.2064471e+09
8.7226972e+09
8.3410171e+09
7.7937649e+09
7.4364442e+09
6.8297948e+09
6.4888842e+09
5.8250952e+09
5.5254815e+09
4.8108365e+09
4.5360645e+09
3.7973688e+09
3.5956083e+09
2.8947855e+09
2.7324004e+09
2.0699267e+09
1.9412826e+09
1.3175404e+09
1.2175233e+09
6.7736934e+08
6.6238003e+08
2.0432488e+08
CELL_DATA 24
FIELD FieldData 0
