# vtk DataFile Version 4.0
vtk output
ASCII
DATASET UNSTRUCTURED_GRID
POINTS 26 float
0.0000000e+00 1.0000000e-01 0.0000000e+00 
0.0000000e+00 0.0000000e+00 0.0000000e+00 
1.4766368e-01 1.0000000e-01 0.0000000e+00 
1.4883940e-01 0.0000000e+00 0.0000000e+00 
3.0036214e-01 1.0000000e-01 0.0000000e+00 
3.0422947e-01 0.0000000e+00 0.0000000e+00 
4.6008557e-01 1.0000000e-01 0.0000000e+00 
4.6697357e-01 0.0000000e+00 0.0000000e+00 
6.2771249e-01 1.0000000e-01 0.0000000e+00 
6.3798475e-01 0.0000000e+00 0.0000000e+00 
8.0424988e-01 1.0000000e-01 0.0000000e+00 
8.1830680e-01 0.0000000e+00 0.0000000e+00 
9.9085975e-01 1.0000000e-01 0.0000000e+00 
1.0091403e+00 0.0000000e+00 0.0000000e+00 
1.1816932e+00 1.0000000e-01 0.0000000e+00 
1.1957501e+00 0.0000000e+00 0.0000000e+00 
1.3620152e+00 1.0000000e-01 0.0000000e+00 
1.3722875e+00 0.0000000e+00 0.0000000e+00 
1.5330265e+00 1.0000000e-01 0.0000000e+00 
1.5399145e+00 0.0000000e+00 0.0000000e+00 
1.6957705e+00 1.0000000e-01 0.0000000e+00 
1.6996379e+00 0.0000000e+00 0.0000000e+00 
1.8511606e+00 1.0000000e-01 0.0000000e+00 
1.8523363e+00 0.0000000e+00 0.0000000e+00 
2.0000000e+00 1.0000000e-01 0.0000000e+00 
2.0000000e+00 0.0000000e+00 0.0000000e+00 

CELLS 24 96
3 25 24 23
3 0 1 2
3 1 3 2
3 2 3 4
3 24 22 23
3 23 22 21
3 3 5 4
3 4 5 6
3 22 20 21
3 21 20 19
3 5 7 6
3 6 7 8
3 20 18 19
3 19 18 17
3 7 9 8
3 8 9 10
3 18 16 17
3 17 16 15
3 9 11 10
3 10 11 12
3 16 14 15
3 15 14 13
3 11 13 12
3 12 13 14

CELL_TYPES 24
5
5
5
5
5
5
5
5
5
5
5
5
5
5
5
5
5
5
5
5
5
5
5
5
POINT_DATA 26
FIELD FieldData 3
DISPLACEMENT 3 26  float
0.0000000e+00 0.0000000e+00 0.0000000e+00 
0.0000000e+00 0.0000000e+00 0.0000000e+00 
2.6857308e-03 -4.6319892e-03 0.0000000e+00 
-3.1330786e-03 -4.5361053e-03 0.0000000e+00 
4.7072344e-03 -1.8152013e-02 0.0000000e+00 
-6.6558174e-03 -1.7961640e-02 0.0000000e+00 
5.6006266e-03 -4.0946942e-02 0.0000000e+00 
-1.1062163e-02 -4.0733043e-02 0.0000000e+00 
4.8476313e-03 -7.3380828e-02 0.0000000e+00 
-1.6832681e-02 -7.3295332e-02 0.0000000e+00 
1.9497348e-03 -1.1578236e-01 0.0000000e+00 
-2.4414744e-02 -1.1606065e-01 0.0000000e+00 
-3.5425557e-03 -1.6840898e-01 0.0000000e+00 
-3.4182873e-02 -1.6936082e-01 0.0000000e+00 
-1.1563732e-02 -2.2911789e-01 0.0000000e+00 
-4.5376271e-02 -2.2819450e-01 0.0000000e+00 
-2.1264721e-02 -2.9160324e-01 0.0000000e+00 
-5.7387795e-02 -2.8879589e-01 0.0000000e+00 
-3.2128923e-02 -3.5441634e-01 0.0000000e+00 
-6.9832943e-02 -3.4984598e-01 0.0000000e+00 
-4.3691792e-02 -4.1651672e-01 0.0000000e+00 
-8.2372211e-02 -4.1038671e-01 0.0000000e+00 
-5.5565748e-02 -4.7717386e-01 0.0000000e+00 
-9.4722629e-02 -4.6973079e-01 0.0000000e+00 
-6.7444332e-02 -5.3588456e-01 0.0000000e+00 
-1.0671803e-01 -5.2783889e-01 0.0000000e+00 
REACTION 3 26  float
0.0000000e+00 0.0000000e+00 0.0000000e+00 
0.0000000e+00 0.0000000e+00 0.0000000e+00 
0.0000000e+00 0.0000000e+00 0.0000000e+00 
0.0000000e+00 0.0000000e+00 0.0000000e+00 
0.0000000e+00 0.0000000e+00 0.0000000e+00 
0.0000000e+00 0.0000000e+00 0.0000000e+00 
0.0000000e+00 0.0000000e+00 0.0000000e+00 
0.0000000e+00 0.0000000e+00 0.0000000e+00 
0.0000000e+00 0.0000000e+00 0.0000000e+00 
0.0000000e+00 0.0000000e+00 0.0000000e+00 
0.0000000e+00 0.0000000e+00 0.0000000e+00 
0.0000000e+00 0.0000000e+00 0.0000000e+00 
0.0000000e+00 0.0000000e+00 0.0000000e+00 
0.0000000e+00 0.0000000e+00 0.0000000e+00 
0.0000000e+00 0.0000000e+00 0.0000000e+00 
0.0000000e+00 0.0000000e+00 0.0000000e+00 
0.0000000e+00 0.0000000e+00 0.0000000e+00 
0.0000000e+00 0.0000000e+00 0.0000000e+00 
0.0000000e+00 0.0000000e+00 0.0000000e+00 
0.0000000e+00 0.0000000e+00 0.0000000e+00 
0.0000000e+00 0.0000000e+00 0.0000000e+00 
0.0000000e+00 0.0000000e+00 0.0000000e+00 
0.0000000e+00 0.0000000e+00 0.0000000e+00 
0.0000000e+00 0.0000000e+00 0.0000000e+00 
0.0000000e+00 0.0000000e+00 0.0000000e+00 
0.0000000e+00 0.0000000e+00 0.0000000e+00 
VON_MISES_STRESS 1 26  float
5.7771986e+09
5.6344965e+09
5.5340042e+09
5.2891059e+09
5.1046129e+09
4.8500992e+09
4.6670904e+09
4.3848591e+09
4.2003210e+09
3.8885908e+09
3.6987387e+09
3.3548247e+09
3.1749647e+09
2.7973548e+09
2.6204001e+09
2.2248287e+09
2.0813722e+09
1.7033135e+09
1.5768271e+09
1.2188223e+09
1.1085532e+09
7.7475149e+08
6.8131731e+08
4.0565546e+08
3.8217040e+08
1.7661933e+08
CELL_DATA 24
FIELD FieldData 0
