# vtk DataFile Version 4.0
vtk output
ASCII
DATASET UNSTRUCTURED_GRID
POINTS 26 float
0.0000000e+00 1.0000000e-01 0.0000000e+00 
0.0000000e+00 0.0000000e+00 0.0000000e+00 
1.4766368e-01 1.0000000e-01 0.0000000e+00 
1.4883940e-01 0.0000000e+00 0.0000000e+00 
3.0036214e-01 1.0000000e-01 0.0000000e+00 
3.0422947e-01 0.0000000e+00 0.0000000e+00 
4.6008557e-01 1.0000000e-01 0.0000000e+00 
4.6697357e-01 0.0000000e+00 0.0000000e+00 
6.2771249e-01 1.0000000e-01 0.0000000e+00 
6.3798475e-01 0.0000000e+00 0.0000000e+00 
8.0424988e-01 1.0000000e-01 0.0000000e+00 
8.1830680e-01 0.0000000e+00 0.0000000e+00 
9.9085975e-01 1.0000000e-01 0.0000000e+00 
1.0091403e+00 0.0000000e+00 0.0000000e+00 
1.1816932e+00 1.0000000e-01 0.0000000e+00 
1.1957501e+00 0.0000000e+00 0.0000000e+00 
1.3620152e+00 1.0000000e-01 0.0000000e+00 
1.3722875e+00 0.0000000e+00 0.0000000e+00 
1.5330265e+00 1.0000000e-01 0.0000000e+00 
1.5399145e+00 0.0000000e+00 0.0000000e+00 
1.6957705e+00 1.0000000e-01 0.0000000e+00 
1.6996379e+00 0.0000000e+00 0.0000000e+00 
1.8511606e+00 1.0000000e-01 0.0000000e+00 
1.8523363e+00 0.0000000e+00 0.0000000e+00 
2.0000000e+00 1.0000000e-01 0.0000000e+00 
2.0000000e+00 0.0000000e+00 0.0000000e+00 

CELLS 24 96
3 25 24 23
3 0 1 2
3 1 3 2
3 2 3 4
3 24 22 23
3 23 22 21
3 3 5 4
3 4 5 6
3 22 20 21
3 21 20 19
3 5 7 6
3 6 7 8
3 20 18 19
3 19 18 17
3 7 9 8
3 8 9 10
3 18 16 17
3 17 16 15
3 9 11 10
3 10 11 12
3 16 14 15
3 15 14 13
3 11 13 12
3 12 13 14

CELL_TYPES 24
5
5
5
5
5
5
5
5
5
5
5
5
5
5
5
5
5
5
5
5
5
5
5
5
POINT_DATA 26
FIELD FieldData 3
DISPLACEMENT 3 26  float
0.0000000e+00 0.0000000e+00 0.0000000e+00 
0.0000000e+00 0.0000000e+00 0.0000000e+00 
7.1660508e-03 -1.5078272e-02 0.0000000e+00 
-1.1079999e-02 -1.3371339e-02 0.0000000e+00 
8.7651126e-03 -5.8200285e-02 0.0000000e+00 
-2.6044589e-02 -5.3211931e-02 0.0000000e+00 
3.6225870e-04 -1.2838797e-01 0.0000000e+00 
-4.9130246e-02 -1.1903351e-01 0.0000000e+00 
-2.1590812e-02 -2.2395416e-01 0.0000000e+00 
-8.3933905e-02 -2.0991869e-01 0.0000000e+00 
-5.9759915e-02 -3.4308866e-01 0.0000000e+00 
-1.3329542e-01 -3.2472390e-01 0.0000000e+00 
-1.1595549e-01 -4.8407865e-01 0.0000000e+00 
-1.9923402e-01 -4.6228388e-01 0.0000000e+00 
-1.8820761e-01 -6.3977909e-01 0.0000000e+00 
-2.7603120e-01 -6.0876429e-01 0.0000000e+00 
-2.6819795e-01 -7.9418850e-01 0.0000000e+00 
-3.5841867e-01 -7.5514752e-01 0.0000000e+00 
-3.5260245e-01 -9.4504523e-01 0.0000000e+00 
-4.4378036e-01 -8.9929879e-01 0.0000000e+00 
-4.3887180e-01 -1.0911994e+00 0.0000000e+00 
-5.3008026e-01 -1.0400424e+00 0.0000000e+00 
-5.2512699e-01 -1.2321458e+00 0.0000000e+00 
-6.1578244e-01 -1.1767817e+00 0.0000000e+00 
-6.1000133e-01 -1.3677357e+00 0.0000000e+00 
-7.0046461e-01 -1.3103607e+00 0.0000000e+00 
REACTION 3 26  float
0.0000000e+00 0.0000000e+00 0.0000000e+00 
0.0000000e+00 0.0000000e+00 0.0000000e+00 
0.0000000e+00 0.0000000e+00 0.0000000e+00 
0.0000000e+00 0.0000000e+00 0.0000000e+00 
0.0000000e+00 0.0000000e+00 0.0000000e+00 
0.0000000e+00 0.0000000e+00 0.0000000e+00 
0.0000000e+00 0.0000000e+00 0.0000000e+00 
0.0000000e+00 0.0000000e+00 0.0000000e+00 
0.0000000e+00 0.0000000e+00 0.0000000e+00 
0.0000000e+00 0.0000000e+00 0.0000000e+00 
0.0000000e+00 0.0000000e+00 0.0000000e+00 
0.0000000e+00 0.0000000e+00 0.0000000e+00 
0.0000000e+00 0.0000000e+00 0.0000000e+00 
0.0000000e+00 0.0000000e+00 0.0000000e+00 
0.0000000e+00 0.0000000e+00 0.0000000e+00 
0.0000000e+00 0.0000000e+00 0.0000000e+00 
0.0000000e+00 0.0000000e+00 0.0000000e+00 
0.0000000e+00 0.0000000e+00 0.0000000e+00 
0.0000000e+00 0.0000000e+00 0.0000000e+00 
0.0000000e+00 0.0000000e+00 0.0000000e+00 
0.0000000e+00 0.0000000e+00 0.0000000e+00 
0.0000000e+00 0.0000000e+00 0.0000000e+00 
0.0000000e+00 0.0000000e+00 0.0000000e+00 
0.0000000e+00 0.0000000e+00 0.0000000e+00 
0.0000000e+00 0.0000000e+00 0.0000000e+00 
0.0000000e+00 0.0000000e+00 0.0000000e+00 
VON_MISES_STRESS 1 26  float
1.7983205e+10
1.7791234e+10
1.7275572e+10
1.6384951e+10
1.5414230e+10
1.4350906e+10
1.3550759e+10
1.2365041e+10
1.1712755e+10
1.0447994e+10
9.9178762e+09
8.6059807e+09
8.2227251e+09
6.9019812e+09
6.6245084e+09
5.3236992e+09
5.2025262e+09
4.0075482e+09
3.9751035e+09
2.8689910e+09
2.9036265e+09
1.8678221e+09
1.9510735e+09
9.7977459e+08
1.0460306e+09
4.3545292e+07
CELL_DATA 24
FIELD FieldData 0
